
 displacements (vx,vy,vz) for set NALL and time  0.1000000E+01

         1  1.583713E-01  6.948233E+00 -8.579323E+00
         2  5.123803E-03  6.916444E+00  0.000000E+00
         3  2.652148E-01  0.000000E+00 -8.548986E+00
         4  0.000000E+00  0.000000E+00  0.000000E+00
         5 -1.386532E+01  6.136582E+00 -8.752522E+00
         6 -1.380387E+01  6.141699E+00  0.000000E+00
         7 -1.356463E+01  0.000000E+00 -8.755515E+00
         8 -1.338223E+01  0.000000E+00  0.000000E+00
         9 -7.048232E+00  6.977397E+00  0.000000E+00
        10 -6.876632E+00  0.000000E+00  0.000000E+00
        11 -6.952632E+00  6.993015E+00 -9.172648E+00
        12 -6.794185E+00  0.000000E+00 -9.167441E+00
        13 -1.349648E+01  3.081098E+00  0.000000E+00
        14 -1.054740E+01  6.651236E+00  0.000000E+00
        15 -3.493942E+00  6.995458E+00  0.000000E+00
        16 -1.108359E-02  3.466402E+00  0.000000E+00
        17 -1.024514E+01  0.000000E+00  0.000000E+00
        18 -3.428849E+00  0.000000E+00  0.000000E+00
        19 -1.357227E+01  3.100425E+00 -8.752224E+00
        20 -1.061355E+01  6.617935E+00 -9.027997E+00
        21 -3.335777E+00  6.970179E+00 -8.878045E+00
        22  2.196253E-01  3.486440E+00 -8.563320E+00
        23 -1.032319E+01  0.000000E+00 -9.052092E+00
        24 -3.226984E+00  0.000000E+00 -8.899121E+00
        25  1.331228E-02  6.931251E+00 -4.304759E+00
        26 -1.373354E+01  6.135900E+00 -4.411879E+00
        27  4.067911E-02  0.000000E+00 -4.287038E+00
        28 -1.341272E+01  0.000000E+00 -4.395421E+00
        29 -1.031671E+01  3.321056E+00  0.000000E+00
        30 -6.923080E+00  3.484137E+00  0.000000E+00
        31 -3.462049E+00  3.497868E+00  0.000000E+00
        32 -1.037475E+01  3.305328E+00 -9.034165E+00
        33 -3.259646E+00  3.490593E+00 -8.894126E+00
        34 -6.833560E+00  3.488247E+00 -9.170766E+00
        35 -1.053298E+01  6.631912E+00 -4.513688E+00
        36 -3.466913E+00  6.987703E+00 -4.447443E+00
        37 -7.025972E+00  6.975971E+00 -4.569737E+00
        38 -1.026576E+01  0.000000E+00 -4.535367E+00
        39 -3.389408E+00  0.000000E+00 -4.454216E+00
        40 -6.863127E+00  0.000000E+00 -4.566559E+00
        41  2.386944E-02  3.484829E+00 -4.303713E+00
        42 -1.346751E+01  3.096248E+00 -4.408595E+00
        43 -6.903482E+00  3.484601E+00 -4.575717E+00
        44 -1.031886E+01  3.322291E+00 -4.524767E+00
        45 -3.422522E+00  3.495213E+00 -4.449076E+00

 stresses (elem, integ.pnt.,sxx,syy,szz,sxy,sxz,syz) for set EALL and time  0.1000000E+01

        37   1 -1.189913E+00 -1.216637E+00 -1.226363E+00  9.084017E-02 -1.487362E-01 -3.794850E-02
        37   2 -3.134361E-01 -8.787661E-01 -3.681339E-01  9.519135E-02 -5.335496E-01 -1.202074E-02
        37   3 -1.300500E+00 -2.878915E-01 -8.609057E-03  2.913316E-02  2.539335E-03  4.250151E-02
        37   4  6.024729E-04 -4.974008E-01 -3.822243E-01  4.609909E-01 -6.255513E-01 -2.181104E-02
        38   1  8.314241E-02  7.025299E-02  6.337659E-01 -2.613068E-01  8.651963E-02 -1.028011E-01
        38   2 -4.967777E-01 -2.606940E-01 -3.919116E-01 -3.284476E-01  6.328738E-01  3.510853E-02
        38   3 -4.272113E-01  4.126709E-01  6.497138E-01 -2.377618E-01 -1.272648E-01 -4.179062E-02
        38   4 -1.378441E+00 -3.704085E-01 -1.048013E+00 -3.256450E-01 -5.943310E-02  1.733473E-01
        39   1  9.020379E-01 -9.123121E-01 -3.347648E-01  1.031689E-01 -2.155106E-01  5.107638E-02
        39   2  1.184954E+00 -5.556579E-01 -3.801007E-01  5.397306E-01 -3.120681E-01  1.291977E-01
        39   3  5.248309E-01  4.786153E-01 -1.192133E-01  4.345260E-02 -4.916121E-01  1.193014E-01
        39   4 -9.492351E-01  5.922590E-01  2.470434E-01  3.793496E-02 -3.665374E-01  9.303719E-02
        40   1 -5.727118E-01  1.262930E+00  1.422449E+00  2.563770E-01 -3.499616E-01 -2.945636E-04
        40   2 -3.431318E-02  1.514025E+00  1.004443E+00  3.491002E-01 -3.987923E-01 -4.485842E-02
        40   3 -4.207776E-02  1.063131E+00  1.669792E+00  3.925669E-01 -4.692150E-01 -5.154070E-02
        40   4  4.798315E-01 -5.253364E-01 -6.254250E-01  4.546660E-01 -3.969302E-01  1.129626E-01
        41   1  1.131502E+00 -4.203394E-01 -3.269809E-01  4.558184E-01 -5.919857E-01  2.300399E-03
        41   2  8.444259E-01 -5.353023E-01 -1.043755E+00  3.645764E-01 -1.162735E-01  5.781319E-02
        41   3  1.434056E-01  1.616883E-01 -3.346042E-01  6.041407E-01 -6.936009E-02  1.170636E-01
        41   4 -1.432162E+00 -1.108412E+00 -1.341498E+00 -9.041114E-03 -1.044388E-01  4.941368E-02
        42   1  4.491688E-01  7.351384E-01  3.720403E-01 -4.478329E-01  3.299029E-01 -5.294171E-02
        42   2  1.692624E-01  1.354067E+00  4.810847E-01 -2.568484E-01  3.491105E-01 -3.423377E-02
        42   3 -6.255119E-01  1.271349E+00  9.911170E-01 -1.283421E-01  3.379475E-01 -4.758525E-02
        42   4  1.371733E+00 -5.438043E-01 -3.859598E-01 -4.897086E-01  4.497431E-01  1.507514E-01
        43   1  2.430301E-01  5.737968E-01  1.506993E+00 -3.883007E-01  3.554229E-01 -3.966851E-02
        43   2  1.379617E+00 -2.736366E-01 -6.434169E-01 -4.933717E-01  4.756965E-01  1.402451E-01
        43   3  4.633280E-01  3.948073E-01  7.450614E-01 -3.437587E-01  4.664990E-01 -5.803627E-02
        43   4 -6.178691E-01  8.550613E-01  1.395782E+00 -2.807013E-01  2.181101E-01 -6.031054E-02
        44   1  7.864273E-01 -3.610386E-01 -7.993550E-01 -4.286974E-01  1.212848E-01  4.557285E-02
        44   2  2.072465E-01  2.087031E-01 -4.742908E-02 -5.005835E-01  1.097511E-01  8.508355E-02
        44   3 -1.411254E+00 -9.351838E-01 -1.075282E+00 -6.931314E-02  1.341508E-01  3.644141E-02
        44   4  1.027217E+00 -2.486303E-01 -3.249853E-02 -4.464788E-01  4.666233E-01 -1.477730E-02
        45   1  9.236312E-01 -5.940187E-01 -2.393546E-01 -9.713501E-02  2.744764E-01  1.272240E-02
        45   2 -1.026560E+00  4.882563E-01  3.587494E-01 -7.278189E-02  4.172799E-01  6.111236E-02
        45   3  5.055631E-01  5.402869E-01 -3.169304E-02 -7.026796E-02  4.143172E-01  6.030942E-02
        45   4  1.158299E+00 -1.636086E-01 -1.389882E-01 -4.851418E-01  3.140274E-01  4.313687E-02
        46   1 -9.709484E-01 -1.684307E-01  1.142004E-01 -6.974995E-02  1.153952E-01  2.199017E-02
        46   2 -4.208825E-01 -7.024378E-01 -1.520644E-01 -9.269441E-02  5.047251E-01 -2.122203E-02
        46   3 -1.185117E+00 -1.036495E+00 -1.052504E+00 -9.742475E-02  2.286301E-01 -4.940912E-02
        46   4 -2.071646E-01 -3.103204E-01 -1.893307E-01 -4.264520E-01  5.692259E-01 -3.186545E-02
        47   1  2.071152E+00 -5.140468E-01 -6.237838E-01  2.311136E-01 -1.431205E-01  8.904424E-02
        47   2  1.380928E-01  4.862681E-01  1.392420E+00  5.095927E-01 -4.856035E-01  1.490584E-02
        47   3  7.584087E-01  3.710549E-01  3.905008E-01  3.687077E-01 -3.881887E-01  3.084660E-03
        47   4  6.699952E-02  1.274416E+00  4.666059E-01  4.008625E-01 -5.014137E-01  3.402376E-03
        48   1 -1.587791E+00 -5.387340E-01 -1.364840E+00  2.954366E-01  1.158565E-01  2.204662E-01
        48   2 -4.568743E-01  3.001155E-01  7.930731E-01  9.653131E-02  1.128881E-01 -9.212562E-02
        48   3  1.846007E-01  4.128061E-02  6.717600E-01  2.626102E-01 -6.844445E-02 -1.246027E-01
        48   4 -5.518797E-01 -4.870150E-01 -5.942396E-01  3.779441E-01 -6.103231E-01  1.178926E-01

 internal state variables (elem, integ.pnt.,values) for set EALL and time  0.1000000E+01

        37   1 -4.444117E-05 -4.611019E-05 -4.885377E-05  2.261330E-05 -3.702566E-05 -9.446711E-06 -1.649637E-05 -1.711591E-05 -1.813431E-05  8.393961E-06 -1.374377E-05 -3.506579E-06  6.568236E+02  0.000000E+00
        37   2 -6.780829E-06 -4.208742E-05 -1.083811E-05  2.369646E-05 -1.328192E-04 -2.992384E-06 -2.517015E-06 -1.562267E-05 -4.023060E-06  8.796026E-06 -4.930191E-05 -1.110760E-06  6.568236E+02  0.000000E+00
        37   3 -9.827791E-05 -7.158798E-06  1.795071E-05  1.044932E-05  9.107941E-07  1.524420E-05 -3.817374E-05 -2.780667E-06  6.972531E-06  4.058791E-06  3.537765E-07  5.921251E-06  6.792291E+02  0.000000E+00
        37   4  7.285032E-06 -2.381680E-05 -1.728946E-05  1.147568E-04 -1.557216E-04 -5.429532E-06  2.704173E-06 -8.840696E-06 -6.417773E-06  4.259723E-05 -5.780321E-05 -2.015419E-06  6.568236E+02  0.000000E+00
        38   1 -6.523398E-07 -1.037398E-06  1.632503E-05 -3.111543E-05  1.030243E-05 -1.224117E-05 -2.300687E-07 -3.658719E-07  5.757549E-06 -1.097386E-05  3.633486E-06 -4.317244E-06  6.137920E+02  0.000000E+00
        38   2 -1.519751E-05 -4.810865E-06 -1.106476E-05 -5.759804E-05  1.109836E-04  6.156788E-06 -5.478327E-06 -1.734198E-06 -3.988574E-06 -2.076267E-05  4.000684E-05  2.219370E-06  6.361080E+02  0.000000E+00
        38   3 -1.530813E-05  9.782489E-06  1.740525E-05 -2.831179E-05 -1.515422E-05 -4.976272E-06 -5.398907E-06  3.450111E-06  6.138523E-06 -9.985067E-06 -5.344624E-06 -1.755043E-06  6.137920E+02  0.000000E+00
        38   4 -4.442764E-05 -7.865408E-08 -3.117628E-05 -5.710657E-05 -1.042245E-05  3.039896E-05 -1.601507E-05 -2.835285E-08 -1.123828E-05 -2.058551E-05 -3.757037E-06  1.095807E-05  6.361080E+02  0.000000E+00
        39   1  6.641206E-05 -6.065711E-05 -2.086212E-05  2.880049E-05 -6.016168E-05  1.425842E-05  2.495678E-05 -2.279415E-05 -7.839713E-06  1.082285E-05 -2.260797E-05  5.358127E-06  6.637473E+02  0.000000E+00
        39   2  8.080945E-05 -4.109544E-05 -2.954264E-05  1.506706E-04 -8.711655E-05  3.606667E-05  3.036713E-05 -1.544313E-05 -1.110174E-05  5.662002E-05 -3.273726E-05  1.355338E-05  6.637473E+02  0.000000E+00
        39   3  4.114435E-05  3.650572E-05 -2.383159E-05  1.738396E-05 -1.966778E-04  4.772857E-05  1.626636E-05  1.443249E-05 -9.421789E-06  6.872723E-06 -7.775631E-05  1.886943E-05  6.861527E+02  0.000000E+00
        39   4 -9.392500E-05  6.079358E-05  2.683612E-05  1.517653E-05 -1.466395E-04  3.722112E-05 -3.713312E-05  2.403466E-05  1.060962E-05  6.000019E-06 -5.797375E-05  1.471532E-05  6.861527E+02  0.000000E+00
        40   1 -9.535324E-05  1.097368E-04  1.319917E-04  1.141741E-04 -1.558508E-04 -1.311800E-07 -3.844712E-05  4.424666E-05  5.322002E-05  4.603584E-05 -6.284017E-05 -5.289274E-08  6.930764E+02  0.000000E+00
        40   2 -4.044361E-05  1.325469E-04  7.874301E-05  1.554672E-04 -1.775969E-04 -1.997711E-05 -1.630716E-05  5.344386E-05  3.174976E-05  6.268550E-05 -7.160837E-05 -8.054915E-06  6.930764E+02  0.000000E+00
        40   3 -4.459366E-05  7.888752E-05  1.518709E-04  1.748245E-04 -2.089587E-04 -2.295297E-05 -1.798049E-05  3.180802E-05  6.123545E-05  7.049051E-05 -8.425368E-05 -9.254806E-06  6.930764E+02  0.000000E+00
        40   4  4.467097E-05 -3.415680E-05 -4.337396E-05  1.421233E-04 -1.240758E-04  3.531080E-05  1.701960E-05 -1.301371E-05 -1.652544E-05  5.414886E-05 -4.727277E-05  1.345338E-05  6.706709E+02  0.000000E+00
        41   1  6.761051E-05 -2.930676E-05 -2.404579E-05  1.134692E-04 -1.473660E-04  5.726498E-07  2.509673E-05 -1.087855E-05 -8.925695E-06  4.211927E-05 -5.470162E-05  2.125652E-07  6.568236E+02  0.000000E+00
        41   2  5.895847E-05 -2.720979E-05 -6.078227E-05  9.075584E-05 -2.894455E-05  1.439173E-05  2.188513E-05 -1.010016E-05 -2.256212E-05  3.368818E-05 -1.074409E-05  5.342148E-06  6.568236E+02  0.000000E+00
        41   3  1.336019E-05  1.500536E-05 -3.049309E-05  2.166898E-04 -2.487768E-05  4.198772E-05  5.189453E-06  5.828478E-06 -1.184432E-05  8.416804E-05 -9.663150E-06  1.630914E-05  6.792291E+02  0.000000E+00
        41   4 -5.751456E-05 -3.729540E-05 -5.418899E-05 -2.250650E-06 -2.599846E-05  1.230080E-05 -2.134916E-05 -1.384389E-05 -2.011472E-05 -8.354317E-07 -9.650519E-06  4.566003E-06  6.568236E+02  0.000000E+00
        42   1  6.478956E-06  1.404711E-05  4.712373E-06 -4.724087E-05  3.480070E-05 -5.584700E-06  2.273150E-06  4.928444E-06  1.653342E-06 -1.657452E-05  1.220987E-05 -1.959399E-06  6.068960E+02  0.000000E+00
        42   2 -2.485925E-06  2.886977E-05  6.121508E-06 -2.709435E-05  3.682687E-05 -3.611243E-06 -8.721898E-07  1.012899E-05  2.147739E-06 -9.506085E-06  1.292075E-05 -1.267009E-06  6.068960E+02  0.000000E+00
        42   3 -2.230018E-05  2.790001E-05  2.121526E-05 -1.353852E-05  3.564931E-05 -5.019659E-06 -7.824044E-06  9.788750E-06  7.443398E-06 -4.750005E-06  1.250760E-05 -1.761153E-06  6.068960E+02  0.000000E+00
        42   4  5.139799E-05 -2.344472E-05 -1.769811E-05 -7.626561E-05  7.004151E-05  2.347752E-05  1.838604E-05 -8.386625E-06 -6.330952E-06 -2.728166E-05  2.505518E-05  8.398358E-06  6.292120E+02  0.000000E+00
        43   1 -1.735016E-06  7.018682E-06  3.282795E-05 -4.096095E-05  3.749275E-05 -4.184541E-06 -6.087324E-07  2.462513E-06  1.151773E-05 -1.437120E-05  1.315438E-05 -1.468151E-06  6.068960E+02  0.000000E+00
        43   2  5.163764E-05 -1.295725E-05 -2.810623E-05 -7.683609E-05  7.408342E-05  2.184132E-05  1.847177E-05 -4.635057E-06 -1.005413E-05 -2.748574E-05  2.650105E-05  7.813057E-06  6.292120E+02  0.000000E+00
        43   3  6.656044E-06  4.842654E-06  1.466203E-05 -3.626232E-05  4.920991E-05 -6.122114E-06  2.335281E-06  1.699051E-06  5.144190E-06 -1.272268E-05  1.726536E-05 -2.147951E-06  6.068960E+02  0.000000E+00
        43   4 -2.212313E-05  1.685777E-05  3.219814E-05 -2.961054E-05  2.300794E-05 -6.362022E-06 -7.761928E-06  5.914570E-06  1.129676E-05 -1.038889E-05  8.072364E-06 -2.232123E-06  6.068960E+02  0.000000E+00
        44   1  4.148054E-05 -1.531070E-05 -3.810760E-05 -8.457163E-05  2.392655E-05  8.990420E-06  1.508244E-05 -5.567015E-06 -1.385603E-05 -3.075048E-05  8.699762E-06  3.268942E-06  6.430040E+02  0.000000E+00
        44   2  5.370084E-06  5.419171E-06 -3.256983E-06 -6.724108E-05  1.474237E-05  1.142888E-05  1.905091E-06  1.922505E-06 -1.155447E-06 -2.385445E-05  5.230002E-06  4.054510E-06  6.206880E+02  0.000000E+00
        44   3 -4.756407E-05 -2.400204E-05 -3.242020E-05 -1.367380E-05  2.646471E-05  7.189008E-06 -1.729443E-05 -8.727210E-06 -1.178808E-05 -4.971834E-06  9.622644E-06  2.613944E-06  6.430040E+02  0.000000E+00
        44   4  4.602922E-05 -1.711597E-05 -6.463880E-06 -8.807946E-05  9.205347E-05 -2.915203E-06  1.673635E-05 -6.223417E-06 -2.350285E-06 -3.202594E-05  3.347090E-05 -1.059976E-06  6.430040E+02  0.000000E+00
        45   1  4.015608E-05 -2.661386E-05 -1.130390E-05 -1.703403E-05  4.813341E-05  2.231057E-06  1.447528E-05 -9.593639E-06 -4.074776E-06 -6.140347E-06  1.735091E-05  8.042411E-07  6.361080E+02  0.000000E+00
        45   2 -3.000677E-05  1.524682E-05  1.167685E-05 -8.666595E-06  4.968814E-05  7.277031E-06 -1.058286E-05  5.377283E-06  4.118217E-06 -3.056555E-06  1.752413E-05  2.566480E-06  6.137920E+02  0.000000E+00
        45   3  1.115485E-05  1.219219E-05 -4.921529E-06 -8.367247E-06  4.933535E-05  7.181420E-06  3.934119E-06  4.299971E-06 -1.735736E-06 -2.950980E-06  1.739970E-05  2.532760E-06  6.137920E+02  0.000000E+00
        45   4  4.607182E-05 -1.208631E-05 -1.117367E-05 -8.507663E-05  5.506925E-05  7.564675E-06  1.660775E-05 -4.356817E-06 -4.027832E-06 -3.066803E-05  1.985111E-05  2.726878E-06  6.361080E+02  0.000000E+00
        46   1 -2.822837E-05 -1.183775E-06  8.448142E-06 -9.369189E-06  1.550051E-05  2.953838E-06 -1.001430E-05 -4.199562E-07  2.997063E-06 -3.323814E-06  5.498960E-06  1.047904E-06  6.206880E+02  0.000000E+00
        46   2 -1.256991E-05 -2.650486E-05  5.247316E-07 -1.828636E-05  9.957004E-05 -4.186592E-06 -4.570456E-06 -9.637242E-06  1.907939E-07 -6.648974E-06  3.620395E-05 -1.522257E-06  6.430040E+02  0.000000E+00
        46   3 -3.732888E-05 -2.997317E-05 -3.221836E-05 -1.921954E-05  4.510319E-05 -9.747223E-06 -1.357289E-05 -1.089833E-05 -1.171469E-05 -6.988281E-06  1.639965E-05 -3.544118E-06  6.430040E+02  0.000000E+00
        46   4 -5.656157E-06 -1.076162E-05 -5.034854E-06 -8.412867E-05  1.122945E-04 -6.286281E-06 -2.056595E-06 -3.912956E-06 -1.830687E-06 -3.058942E-05  4.083060E-05 -2.285710E-06  6.430040E+02  0.000000E+00
        47   1  1.530559E-04 -4.968184E-05 -5.965206E-05  7.224344E-05 -4.473780E-05  2.783420E-05  5.831418E-05 -1.892874E-05 -2.272739E-05  2.752469E-05 -1.704506E-05  1.060481E-05  6.706709E+02  0.000000E+00
        47   2 -1.452792E-05  2.437251E-05  1.299527E-04  2.269404E-04 -2.162571E-04  6.638120E-06 -5.857765E-06  9.827172E-06  5.239787E-05  9.150402E-05 -8.719645E-05  2.676538E-06  6.930764E+02  0.000000E+00
        47   3  6.242519E-05  1.914748E-05  2.253696E-05  1.641991E-04 -1.728747E-04  1.373713E-06  2.517029E-05  7.720403E-06  9.087066E-06  6.620628E-05 -6.970435E-05  5.538910E-07  6.930764E+02  0.000000E+00
        47   4 -1.905238E-05  1.158481E-04  2.704827E-05  1.785189E-04 -2.232980E-04  1.515203E-06 -7.682058E-06  4.671081E-05  1.090606E-05  7.198010E-05 -9.003537E-05  6.109410E-07  6.930764E+02  0.000000E+00
        48   1 -7.896029E-05 -5.488931E-06 -6.601180E-05  8.247372E-05  3.234235E-05  6.154508E-05 -2.967224E-05 -2.062669E-06 -2.480637E-05  3.099254E-05  1.215383E-05  2.312783E-05  6.637473E+02  0.000000E+00
        48   2 -5.447610E-05  2.150239E-05  7.320026E-05  3.861900E-05  4.516281E-05 -3.685643E-05 -2.153705E-05  8.500941E-06  2.893962E-05  1.526797E-05  1.785506E-05 -1.457114E-05  6.861527E+02  0.000000E+00
        48   3  6.531352E-06 -7.853575E-06  5.730765E-05  1.050617E-04 -2.738237E-05 -4.984944E-05  2.582161E-06 -3.104900E-06  2.265650E-05  4.153600E-05 -1.082558E-05 -1.970791E-05  6.861527E+02  0.000000E+00
        48   4 -2.358103E-05 -1.903818E-05 -2.770848E-05  1.055064E-04 -1.703771E-04  3.291076E-05 -8.861442E-06 -7.154300E-06 -1.041248E-05  3.964793E-05 -6.402547E-05  1.236743E-05  6.637473E+02  0.000000E+00

 volume (element, volume) for set EALL and time  0.1000000E+01

        37  2.087500E+07
        38  2.079167E+07
        39  2.087500E+07
        40  2.087500E+07
        41  2.087500E+07
        42  2.079167E+07
        43  2.079167E+07
        44  2.079167E+07
        45  2.079167E+07
        46  2.079167E+07
        47  2.087500E+07
        48  2.087500E+07

 displacements (vx,vy,vz) for set NALL and time  0.2000000E+01

         1 -8.440970E-01  6.580636E+00 -8.196297E+00
         2 -4.251506E-01  6.526117E+00  0.000000E+00
         3 -2.208493E-01  0.000000E+00 -8.144292E+00
         4  0.000000E+00  0.000000E+00  0.000000E+00
         5 -1.246171E+01  3.281037E+00 -5.625905E+00
         6 -1.164177E+01  3.285603E+00  0.000000E+00
         7 -1.147079E+01  0.000000E+00 -5.624871E+00
         8 -1.041722E+01  0.000000E+00  0.000000E+00
         9 -6.782150E+00  5.748050E+00  0.000000E+00
        10 -6.037778E+00  0.000000E+00  0.000000E+00
        11 -7.293826E+00  5.776762E+00 -7.853951E+00
        12 -6.580247E+00  0.000000E+00 -7.845796E+00
        13 -1.074163E+01  1.664412E+00  0.000000E+00
        14 -9.553894E+00  4.687138E+00  0.000000E+00
        15 -3.664319E+00  6.228813E+00  0.000000E+00
        16 -1.282690E-01  3.276378E+00  0.000000E+00
        17 -8.560637E+00  0.000000E+00  0.000000E+00
        18 -3.113375E+00  0.000000E+00  0.000000E+00
        19 -1.158725E+01  1.704301E+00 -5.624458E+00
        20 -1.037290E+01  4.628684E+00 -6.861539E+00
        21 -4.066701E+00  6.179605E+00 -8.030643E+00
        22 -4.108140E-01  3.311332E+00 -8.168621E+00
        23 -9.409083E+00  0.000000E+00 -6.904939E+00
        24 -3.443256E+00  0.000000E+00 -8.071383E+00
        25 -5.848401E-01  6.551124E+00 -4.123837E+00
        26 -1.168240E+01  3.278739E+00 -2.882607E+00
        27 -9.856851E-02  0.000000E+00 -4.092758E+00
        28 -1.065042E+01  0.000000E+00 -2.848815E+00
        29 -8.799343E+00  2.336431E+00  0.000000E+00
        30 -6.225367E+00  2.865527E+00  0.000000E+00
        31 -3.279517E+00  3.113465E+00  0.000000E+00
        32 -9.607913E+00  2.309581E+00 -6.872755E+00
        33 -3.608945E+00  3.099002E+00 -8.061880E+00
        34 -6.757450E+00  2.873106E+00 -7.851379E+00
        35 -9.695266E+00  4.654304E+00 -3.432586E+00
        36 -3.784978E+00  6.213389E+00 -4.029281E+00
        37 -6.911235E+00  5.745435E+00 -3.896343E+00
        38 -8.772787E+00  0.000000E+00 -3.472718E+00
        39 -3.214444E+00  0.000000E+00 -4.042462E+00
        40 -6.184447E+00  0.000000E+00 -3.891240E+00
        41 -2.390207E-01  3.308833E+00 -4.122222E+00
        42 -1.086130E+01  1.695289E+00 -2.875692E+00
        43 -6.364779E+00  2.866093E+00 -3.907667E+00
        44 -8.976467E+00  2.340920E+00 -3.453227E+00
        45 -3.381064E+00  3.107481E+00 -4.032464E+00

 stresses (elem, integ.pnt.,sxx,syy,szz,sxy,sxz,syz) for set EALL and time  0.2000000E+01

        37   1 -1.374500E+00 -1.313412E+00 -1.292815E+00  1.166085E-01 -2.073689E-01 -4.098708E-02
        37   2 -3.557481E-01 -9.264450E-01 -3.403274E-01  1.275071E-01 -6.705463E-01 -1.214968E-02
        37   3 -1.273980E+00 -4.252091E-02  2.460955E-01  4.241107E-02 -2.555120E-02  3.815156E-02
        37   4 -1.497822E-02 -5.074968E-01 -3.579868E-01  5.896802E-01 -7.751539E-01 -2.261250E-02
        38   1  1.129910E-01  1.496250E-02  6.723076E-01 -3.165697E-01  9.933861E-02 -1.360961E-01
        38   2 -6.315449E-01 -3.854710E-01 -6.373483E-01 -3.370638E-01  7.056838E-01  5.862241E-02
        38   3 -5.347881E-01  4.102705E-01  6.962513E-01 -2.976424E-01 -1.885917E-01 -5.765513E-02
        38   4 -1.693182E+00 -5.717249E-01 -1.449991E+00 -3.601819E-01 -7.881315E-02  2.214051E-01
        39   1  9.913067E-01 -8.556098E-01 -3.098558E-01  1.334085E-01 -3.173209E-01  5.301004E-02
        39   2  1.272344E+00 -4.812324E-01 -3.429012E-01  6.496815E-01 -4.208369E-01  1.364557E-01
        39   3  5.174304E-01  6.697912E-01 -2.183483E-02  6.344399E-02 -4.958201E-01  1.000824E-01
        39   4 -9.437388E-01  7.644945E-01  4.074911E-01  5.097741E-02 -3.724040E-01  7.988610E-02
        40   1 -6.085944E-01  1.237448E+00  1.357025E+00  2.391209E-01 -3.323780E-01 -6.027703E-03
        40   2 -3.214533E-02  1.500602E+00  9.094847E-01  3.203598E-01 -3.790900E-01 -5.275543E-02
        40   3 -7.626997E-02  1.000286E+00  1.608789E+00  3.894706E-01 -4.366906E-01 -5.965284E-02
        40   4  5.366942E-01 -3.921263E-01 -4.748089E-01  5.397482E-01 -4.733178E-01  1.065902E-01
        41   1  1.226824E+00 -4.427127E-01 -3.084359E-01  6.051106E-01 -7.362246E-01  1.092467E-03
        41   2  9.593217E-01 -5.672783E-01 -1.089124E+00  4.928817E-01 -1.592166E-01  6.005073E-02
        41   3  2.088462E-01  2.890974E-01 -5.063855E-02  6.411276E-01 -1.006548E-01  9.532740E-02
        41   4 -1.606095E+00 -1.210611E+00 -1.421949E+00  5.286339E-02 -1.211530E-01  5.224911E-02
        42   1  5.770627E-01  9.605134E-01  4.936262E-01 -5.784433E-01  4.288638E-01 -6.233901E-02
        42   2  2.460552E-01  1.771187E+00  6.704684E-01 -3.481585E-01  4.757337E-01 -3.667015E-02
        42   3 -7.890216E-01  1.663333E+00  1.288538E+00 -1.814399E-01  4.417052E-01 -6.061016E-02
        42   4  1.652278E+00 -8.385107E-01 -5.757625E-01 -5.407605E-01  4.986593E-01  2.037199E-01
        43   1  3.536115E-01  7.915063E-01  1.961301E+00 -5.151057E-01  4.824692E-01 -4.325515E-02
        43   2  1.663130E+00 -4.411668E-01 -9.636105E-01 -5.582252E-01  5.143362E-01  1.907048E-01
        43   3  5.966582E-01  5.181923E-01  9.661994E-01 -4.506851E-01  5.976230E-01 -7.068067E-02
        43   4 -7.766367E-01  1.118627E+00  1.813988E+00 -3.772053E-01  2.869407E-01 -7.739658E-02
        44   1  9.645477E-01 -4.880411E-01 -1.046963E+00 -4.454684E-01  1.157020E-01  5.707644E-02
        44   2  2.493711E-01  1.916765E-01 -2.822186E-01 -6.258566E-01  1.175902E-01  1.240727E-01
        44   3 -1.667523E+00 -1.178719E+00 -1.371376E+00 -2.106781E-02  1.582544E-01  4.765774E-02
        44   4  1.245721E+00 -3.472324E-01 -1.261548E-01 -4.453443E-01  4.719756E-01 -1.317317E-02
        45   1  1.072202E+00 -8.842357E-01 -3.453555E-01 -9.963149E-02  2.480780E-01  1.807779E-02
        45   2 -1.283904E+00  5.168245E-01  3.446725E-01 -8.334827E-02  5.227911E-01  8.750685E-02
        45   3  6.565288E-01  5.760043E-01 -1.024805E-01 -7.929193E-02  5.302660E-01  8.508793E-02
        45   4  1.344475E+00 -3.481350E-01 -2.179330E-01 -5.328035E-01  2.955806E-01  5.762268E-02
        46   1 -1.289485E+00 -4.302375E-01 -5.579904E-02 -7.692967E-02  1.179482E-01  3.178345E-02
        46   2 -4.901653E-01 -9.302135E-01 -2.605282E-01 -9.056811E-02  5.204152E-01 -2.342274E-02
        46   3 -1.352855E+00 -1.327961E+00 -1.332060E+00 -1.028644E-01  2.284325E-01 -5.764004E-02
        46   4 -2.254525E-01 -4.573120E-01 -3.054355E-01 -4.400622E-01  5.913650E-01 -3.588221E-02
        47   1  2.232303E+00 -4.351506E-01 -5.279300E-01  3.191803E-01 -2.159928E-01  9.605455E-02
        47   2  1.152587E-01  4.713441E-01  1.329143E+00  4.993675E-01 -4.568814E-01  3.302343E-03
        47   3  7.367661E-01  3.674191E-01  3.726793E-01  3.650095E-01 -3.702844E-01  3.136528E-03
        47   4  2.001611E-02  1.255409E+00  4.350430E-01  3.905971E-01 -4.808274E-01 -1.449144E-02
        48   1 -1.699787E+00 -4.646968E-01 -1.295367E+00  3.636839E-01  1.184189E-01  2.345752E-01
        48   2 -4.670946E-01  4.650750E-01  9.669543E-01  1.058898E-01  8.042965E-02 -9.189195E-02
        48   3  2.107480E-01  1.586837E-01  8.606122E-01  2.888647E-01 -8.914598E-02 -1.337279E-01
        48   4 -5.748783E-01 -4.447541E-01 -4.945371E-01  4.861683E-01 -7.116724E-01  1.166745E-01

 internal state variables (elem, integ.pnt.,values) for set EALL and time  0.2000000E+01

        37   1 -1.338768E-04 -1.330946E-04 -1.390456E-04  7.011957E-05 -1.189024E-04 -2.736916E-05 -5.271095E-05 -5.253387E-05 -5.492909E-05  2.756297E-05 -4.664917E-05 -1.080051E-05  6.568236E+02  4.532816E-01
        37   2 -2.124485E-05 -1.210438E-04 -2.824724E-05  7.480089E-05 -4.082741E-04 -8.462076E-06 -8.346247E-06 -4.778764E-05 -1.122090E-05  2.937417E-05 -1.605647E-04 -3.344195E-06  6.568236E+02  4.532816E-01
        37   3 -2.728187E-04 -3.774813E-06  6.641740E-05  3.335737E-05 -7.582933E-06  4.015608E-05 -1.160274E-04 -2.198845E-06  2.763529E-05  1.402623E-05 -2.852204E-06  1.715772E-05  6.792291E+02  6.834208E-01
        37   4  1.955614E-05 -6.771969E-05 -4.714475E-05  3.553217E-04 -4.759317E-04 -1.549529E-05  7.753630E-06 -2.675383E-05 -1.867346E-05  1.396830E-04 -1.872334E-04 -6.120315E-06  6.568236E+02  4.532816E-01
        38   1 -1.063497E-06 -4.728435E-06  4.867545E-05 -9.720521E-05  3.153261E-05 -3.961745E-05 -3.952001E-07 -1.699637E-06  1.767057E-05 -3.524241E-05  1.143881E-05 -1.434999E-05  6.137920E+02  2.060098E-01
        38   2 -4.662690E-05 -1.636538E-05 -3.993115E-05 -1.668856E-04  3.314227E-04  2.180078E-05 -1.751353E-05 -6.122705E-06 -1.490798E-05 -6.283268E-05  1.246232E-04  8.144529E-06  6.361080E+02  3.100960E-01
        38   3 -4.755703E-05  2.866225E-05  5.236453E-05 -8.958936E-05 -5.143972E-05 -1.638264E-05 -1.724475E-05  1.041044E-05  1.900496E-05 -3.246995E-05 -1.860936E-05 -5.931376E-06  6.137920E+02  2.060098E-01
        38   4 -1.360747E-04 -3.750335E-06 -1.023589E-04 -1.700201E-04 -3.332337E-05  9.570869E-05 -5.111455E-05 -1.355555E-06 -3.834549E-05 -6.393975E-05 -1.249621E-05  3.591218E-05  6.361080E+02  3.100960E-01
        39   1  1.903026E-04 -1.671294E-04 -5.808264E-05  8.893742E-05 -1.965698E-04  4.039128E-05  7.663077E-05 -6.747912E-05 -2.343428E-05  3.564081E-05 -7.850425E-05  1.627723E-05  6.637473E+02  5.146026E-01
        39   2  2.301508E-04 -1.114745E-04 -8.171955E-05  4.518094E-04 -2.738496E-04  1.028305E-04  9.271461E-05 -4.505737E-05 -3.298562E-05  1.813944E-04 -1.096221E-04  4.142154E-05  6.637473E+02  5.146026E-01
        39   3  1.068829E-04  1.142611E-04 -5.816132E-05  5.504114E-05 -5.339193E-04  1.214708E-04  4.703618E-05  4.941424E-05 -2.576278E-05  2.378013E-05 -2.339345E-04  5.356848E-05  6.861527E+02  7.758756E-01
        39   4 -2.581076E-04  1.773166E-04  8.468928E-05  4.628751E-05 -3.991728E-04  9.546387E-05 -1.129548E-04  7.716493E-05  3.659964E-05  2.006293E-05 -1.748491E-04  4.206590E-05  6.861527E+02  7.758756E-01
        40   1 -2.570023E-04  2.923401E-04  3.471585E-04  2.974886E-04 -4.087394E-04 -2.903806E-06 -1.162021E-04  1.323477E-04  1.573863E-04  1.350090E-04 -1.853631E-04 -1.188138E-06  6.930764E+02  8.808380E-01
        40   2 -1.062722E-04  3.543683E-04  2.011516E-04  4.027455E-04 -4.659206E-04 -5.691319E-05 -4.818415E-05  1.603666E-04  9.149185E-05  1.828958E-04 -2.112873E-04 -2.558276E-05  6.930764E+02  8.808380E-01
        40   3 -1.206856E-04  2.061632E-04  4.012545E-04  4.659055E-04 -5.440367E-04 -6.496312E-05 -5.454315E-05  9.353161E-05  1.818202E-04  2.109155E-04 -2.469209E-04 -2.922106E-05  6.930764E+02  8.808380E-01
        40   4  1.246873E-04 -8.770881E-05 -1.115495E-04  4.203324E-04 -3.676159E-04  9.583266E-05  5.141368E-05 -3.640509E-05 -4.629469E-05  1.725795E-04 -1.509158E-04  3.960123E-05  6.706709E+02  5.842194E-01
        41   1  1.956722E-04 -8.470820E-05 -6.729950E-05  3.568231E-04 -4.510574E-04  1.312541E-06  7.722177E-05 -3.343252E-05 -2.661340E-05  1.401530E-04 -1.774331E-04  5.260782E-07  6.568236E+02  4.532816E-01
        41   2  1.729746E-04 -7.894649E-05 -1.744405E-04  2.876120E-04 -9.223102E-05  4.110058E-05  6.820924E-05 -3.115147E-05 -6.887719E-05  1.129204E-04 -3.620038E-05  1.623320E-05  6.568236E+02  4.532816E-01
        41   3  3.675989E-05  4.683814E-05 -6.286960E-05  6.062454E-04 -7.930327E-05  1.071046E-04  1.564575E-05  1.972877E-05 -2.754077E-05  2.576571E-04 -3.334939E-05  4.589916E-05  6.792291E+02  6.834208E-01
        41   4 -1.699665E-04 -1.085261E-04 -1.548998E-04  9.069793E-06 -7.740220E-05  3.535896E-05 -6.699464E-05 -4.281586E-05 -6.117623E-05  3.213905E-06 -3.049602E-05  1.396001E-05  6.568236E+02  4.532816E-01
        42   1  2.066866E-05  4.536650E-05  1.542860E-05 -1.518399E-04  1.121447E-04 -1.731266E-05  7.427761E-06  1.629878E-05  5.541254E-06 -5.455751E-05  4.029220E-05 -6.225995E-06  6.068960E+02  1.815532E-01
        42   2 -7.609773E-06  9.303441E-05  2.066506E-05 -8.881571E-05  1.209842E-04 -1.081092E-05 -2.737481E-06  3.342609E-05  7.416783E-06 -3.189769E-05  4.344864E-05 -3.891198E-06  6.068960E+02  1.815532E-01
        42   3 -7.134383E-05  9.006796E-05  6.824862E-05 -4.516767E-05  1.151308E-04 -1.604399E-05 -2.563733E-05  3.235894E-05  2.452187E-05 -1.621519E-05  4.136294E-05 -5.765519E-06  6.068960E+02  1.815532E-01
        42   4  1.603419E-04 -7.810033E-05 -5.762598E-05 -2.280230E-04  2.097301E-04  7.599597E-05  5.946067E-05 -2.889738E-05 -2.133815E-05 -8.468909E-05  7.789068E-05  2.814595E-05  6.292120E+02  2.732827E-01
        43   1 -4.889307E-06  2.352863E-05  1.055534E-04 -1.330853E-04  1.229749E-04 -1.260772E-05 -1.762587E-06  8.445857E-06  3.792602E-05 -4.780672E-05  4.416518E-05 -4.537197E-06  6.068960E+02  1.815532E-01
        43   2  1.611692E-04 -4.284891E-05 -9.287654E-05 -2.318186E-04  2.197930E-04  7.088382E-05  5.976642E-05 -1.585811E-05 -3.437387E-05 -8.607020E-05  8.165577E-05  2.625028E-05  6.292120E+02  2.732827E-01
        43   3  2.131014E-05  1.574728E-05  4.719478E-05 -1.172565E-04  1.576486E-04 -1.922579E-05  7.657639E-06  5.656605E-06  1.695695E-05 -4.212543E-05  5.664904E-05 -6.911829E-06  6.068960E+02  1.815532E-01
        43   4 -7.070257E-05  5.439666E-05  1.036303E-04 -9.671721E-05  7.450181E-05 -2.039546E-05 -2.540752E-05  1.954343E-05  3.723416E-05 -3.473834E-05  2.676454E-05 -7.328732E-06  6.068960E+02  1.815532E-01
        44   1  1.285594E-04 -4.868612E-05 -1.200842E-04 -2.447682E-04  6.721113E-05  2.793785E-05  4.893016E-05 -1.850912E-05 -4.567083E-05 -9.345443E-05  2.569883E-05  1.063198E-05  6.430040E+02  3.518683E-01
        44   2  1.795048E-05  1.609953E-05 -1.663209E-05 -2.119160E-04  4.382547E-05  3.839620E-05  6.556088E-06  5.901160E-06 -6.014408E-06 -7.753302E-05  1.606356E-05  1.402149E-05  6.206880E+02  2.337609E-01
        44   3 -1.432919E-04 -7.538994E-05 -1.024345E-04 -2.952232E-05  8.031421E-05  2.273798E-05 -5.460747E-05 -2.867665E-05 -3.895369E-05 -1.145486E-05  3.059688E-05  8.646379E-06  6.430040E+02  3.518683E-01
        44   4  1.420794E-04 -5.390032E-05 -2.337212E-05 -2.512510E-04  2.638769E-04 -8.006714E-06  5.408573E-05 -2.050014E-05 -8.838749E-06 -9.599645E-05  1.007966E-04 -3.064864E-06  6.430040E+02  3.518683E-01
        45   1  1.232701E-04 -8.774350E-05 -3.581113E-05 -4.934566E-05  1.335706E-04  7.344924E-06  4.630046E-05 -3.286516E-05 -1.343392E-05 -1.857885E-05  5.038396E-05  2.751261E-06  6.361080E+02  3.100960E-01
        45   2 -9.413573E-05  4.620813E-05  3.452476E-05 -2.649994E-05  1.572822E-04  2.433755E-05 -3.412566E-05  1.676713E-05  1.253648E-05 -9.613411E-06  5.700344E-05  8.807905E-06  6.137920E+02  2.060098E-01
        45   3  3.655491E-05  3.613327E-05 -1.695170E-05 -2.544442E-05  1.574975E-04  2.386665E-05  1.323638E-05  1.311967E-05 -6.130386E-06 -9.231910E-06  5.706851E-05  8.638880E-06  6.137920E+02  2.060098E-01
        45   4  1.409279E-04 -4.236420E-05 -3.519558E-05 -2.526290E-04  1.548791E-04  2.425988E-05  5.294034E-05 -1.583247E-05 -1.320598E-05 -9.501699E-05  5.838721E-05  9.096349E-06  6.361080E+02  3.100960E-01
        46   1 -8.931540E-05 -8.938273E-06  2.194121E-05 -2.814754E-05  4.531503E-05  9.885550E-06 -3.267363E-05 -3.212379E-06  8.079580E-06 -1.031358E-05  1.661854E-05  3.610394E-06  6.206880E+02  2.337609E-01
        46   2 -3.667983E-05 -8.430961E-05 -1.382328E-06 -5.178976E-05  2.873768E-04 -1.238725E-05 -1.399919E-05 -3.205174E-05 -4.749707E-07 -1.979440E-05  1.097373E-04 -4.724628E-06  6.430040E+02  3.518683E-01
        46   3 -1.100597E-04 -9.518213E-05 -1.013888E-04 -5.594665E-05  1.287347E-04 -2.945297E-05 -4.198486E-05 -3.618776E-05 -3.856281E-05 -2.135503E-05  4.918477E-05 -1.122276E-05  6.430040E+02  3.518683E-01
        46   4 -1.521655E-05 -3.616302E-05 -1.844418E-05 -2.428799E-04  3.249785E-04 -1.874031E-05 -5.830802E-06 -1.371600E-05 -6.971640E-06 -9.274453E-05  1.240798E-04 -7.145252E-06  6.430040E+02  3.518683E-01
        47   1  4.331988E-04 -1.349140E-04 -1.609959E-04  2.276710E-04 -1.467201E-04  7.930286E-05  1.784380E-04 -5.574839E-05 -6.655778E-05  9.306245E-05 -5.981399E-05  3.264932E-05  6.706709E+02  5.842194E-01
        47   2 -3.988443E-05  6.497542E-05  3.415788E-04  6.020302E-04 -5.652378E-04  1.257542E-05 -1.799790E-05  2.941325E-05  1.548676E-04  2.726760E-04 -2.564319E-04  5.946055E-06  6.930764E+02  8.808380E-01
        47   3  1.650722E-04  5.140799E-05  5.882719E-05  4.372372E-04 -4.540995E-04  3.694865E-06  7.479207E-05  2.325360E-05  2.669214E-05  1.979548E-04 -2.058981E-04  1.670987E-06  6.930764E+02  8.808380E-01
        47   4 -5.473949E-05  3.089587E-04  7.010642E-05  4.725874E-04 -5.876803E-04 -3.918821E-06 -2.458433E-05  1.398546E-04  3.183504E-05  2.140970E-04 -2.664096E-04 -1.380244E-06  6.930764E+02  8.808380E-01
        48   1 -2.288388E-04 -1.046160E-05 -1.798036E-04  2.495612E-04  9.111038E-05  1.759537E-04 -9.207912E-05 -4.354294E-06 -7.265453E-05  1.001371E-04  3.673031E-05  7.086360E-05  6.637473E+02  5.146026E-01
        48   2 -1.528109E-04  7.037946E-05  2.116629E-04  1.082521E-04  1.092309E-04 -9.964481E-05 -6.674267E-05  3.032259E-05  9.218510E-05  4.728409E-05  4.843134E-05 -4.367645E-05  6.861527E+02  7.758756E-01
        48   3  1.587843E-05 -1.388979E-05  1.701449E-04  2.948142E-04 -8.238226E-05 -1.385498E-04  7.036333E-06 -6.403747E-06  7.392463E-05  1.287606E-04 -3.575103E-05 -6.056702E-05  6.861527E+02  7.758756E-01
        48   4 -6.863053E-05 -5.136304E-05 -7.137832E-05  3.250962E-04 -5.044868E-04  9.164367E-05 -2.760755E-05 -2.076859E-05 -2.895818E-05  1.302970E-04 -2.027084E-04  3.697451E-05  6.637473E+02  5.146026E-01

 volume (element, volume) for set EALL and time  0.2000000E+01

        37  2.087500E+07
        38  2.079167E+07
        39  2.087500E+07
        40  2.087500E+07
        41  2.087500E+07
        42  2.079167E+07
        43  2.079167E+07
        44  2.079167E+07
        45  2.079167E+07
        46  2.079167E+07
        47  2.087500E+07
        48  2.087500E+07

 displacements (vx,vy,vz) for set NALL and time  0.3000000E+01

         1 -1.787401E+00  6.208376E+00 -7.807192E+00
         2 -8.342210E-01  6.133926E+00  0.000000E+00
         3 -6.782061E-01  0.000000E+00 -7.736614E+00
         4  0.000000E+00  0.000000E+00  0.000000E+00
         5 -1.105343E+01  6.031532E-01 -2.729515E+00
         6 -9.543582E+00  6.039196E-01  0.000000E+00
         7 -9.425288E+00  0.000000E+00 -2.721990E+00
         8 -7.584217E+00  0.000000E+00  0.000000E+00
         9 -6.500784E+00  4.552070E+00  0.000000E+00
        10 -5.219935E+00  0.000000E+00  0.000000E+00
        11 -7.577010E+00  4.593138E+00 -6.577581E+00
        12 -6.341395E+00  0.000000E+00 -6.566946E+00
        13 -8.101484E+00  3.333596E-01  0.000000E+00
        14 -8.566005E+00  2.812326E+00  0.000000E+00
        15 -3.814104E+00  5.474363E+00  0.000000E+00
        16 -2.390337E-01  3.084719E+00  0.000000E+00
        17 -6.932233E+00  0.000000E+00  0.000000E+00
        18 -2.804511E+00  0.000000E+00  0.000000E+00
        19 -9.648987E+00  3.909294E-01 -2.726349E+00
        20 -1.006975E+01  2.731903E+00 -4.814503E+00
        21 -4.738829E+00  5.402788E+00 -7.200943E+00
        22 -1.003261E+00  3.132849E+00 -7.769328E+00
        23 -8.484288E+00  0.000000E+00 -4.874245E+00
        24 -3.631154E+00  0.000000E+00 -7.259788E+00
        25 -1.149685E+00  6.167796E+00 -3.938441E+00
        26 -9.694179E+00  5.987612E-01 -1.460961E+00
        27 -2.278156E-01  0.000000E+00 -3.895715E+00
        28 -8.004329E+00  0.000000E+00 -1.412542E+00
        29 -7.326344E+00  1.397820E+00  0.000000E+00
        30 -5.539559E+00  2.264237E+00  0.000000E+00
        31 -3.095211E+00  2.735179E+00  0.000000E+00
        32 -8.819248E+00  1.360849E+00 -4.830079E+00
        33 -3.921836E+00  2.714105E+00 -7.246083E+00
        34 -6.647916E+00  2.275215E+00 -6.574371E+00
        35 -8.850688E+00  2.767565E+00 -2.411680E+00
        36 -4.071555E+00  5.451656E+00 -3.619523E+00
        37 -6.770164E+00  4.548961E+00 -3.246281E+00
        38 -7.319636E+00  0.000000E+00 -2.466023E+00
        39 -3.035989E+00  0.000000E+00 -3.638520E+00
        40 -5.514286E+00  0.000000E+00 -3.239531E+00
        41 -4.852544E-01  3.129582E+00 -3.936289E+00
        42 -8.363216E+00  3.774787E-01 -1.450607E+00
        43 -5.826291E+00  2.265412E+00 -3.262056E+00
        44 -7.664249E+00  1.404172E+00 -2.439744E+00
        45 -3.327985E+00  2.726027E+00 -3.623987E+00

 stresses (elem, integ.pnt.,sxx,syy,szz,sxy,sxz,syz) for set EALL and time  0.3000000E+01

        37   1 -1.413997E+00 -1.283637E+00 -1.245925E+00  1.190255E-01 -2.143272E-01 -4.113827E-02
        37   2 -3.790804E-01 -8.970615E-01 -2.992261E-01  1.328225E-01 -6.811229E-01 -1.254473E-02
        37   3 -1.290786E+00 -5.117656E-02  2.330573E-01  4.269190E-02 -2.315837E-02  3.603500E-02
        37   4 -3.485843E-02 -4.752912E-01 -3.148707E-01  6.037870E-01 -7.835566E-01 -2.316182E-02
        38   1  1.263149E-01 -2.790924E-02  6.452666E-01 -3.284963E-01  9.650868E-02 -1.470970E-01
        38   2 -6.667178E-01 -4.258351E-01 -7.187477E-01 -3.294772E-01  7.117973E-01  6.804355E-02
        38   3 -5.643804E-01  3.753551E-01  6.693643E-01 -3.148096E-01 -2.199701E-01 -6.445465E-02
        38   4 -1.772188E+00 -6.283527E-01 -1.549476E+00 -3.618803E-01 -8.778310E-02  2.328309E-01
        39   1  9.976927E-01 -8.203977E-01 -3.012474E-01  1.398127E-01 -3.316966E-01  5.151553E-02
        39   2  1.249022E+00 -4.494181E-01 -3.515341E-01  6.615351E-01 -4.430634E-01  1.330093E-01
        39   3  5.199211E-01  6.515913E-01 -2.256027E-02  7.281191E-02 -4.946008E-01  1.077636E-01
        39   4 -9.537167E-01  7.591901E-01  4.004905E-01  5.339474E-02 -3.634540E-01  8.265404E-02
        40   1 -6.478447E-01  1.268953E+00  1.362310E+00  2.459833E-01 -3.302574E-01 -5.220244E-03
        40   2 -4.850703E-02  1.548770E+00  9.115337E-01  3.341766E-01 -3.812746E-01 -5.324266E-02
        40   3 -6.713257E-02  1.019898E+00  1.625291E+00  4.043782E-01 -4.473154E-01 -6.185487E-02
        40   4  6.009588E-01 -3.827827E-01 -4.520904E-01  5.510834E-01 -4.808665E-01  1.034479E-01
        41   1  1.229764E+00 -4.275766E-01 -2.548285E-01  6.373061E-01 -7.361588E-01 -1.642037E-03
        41   2  9.862218E-01 -5.471978E-01 -1.022529E+00  5.180926E-01 -1.640384E-01  5.801089E-02
        41   3  2.188979E-01  2.865815E-01 -4.739022E-02  6.434546E-01 -1.058054E-01  1.045385E-01
        41   4 -1.614511E+00 -1.193560E+00 -1.363698E+00  6.746874E-02 -1.220212E-01  5.035182E-02
        42   1  6.157511E-01  1.037716E+00  5.316471E-01 -6.220594E-01  4.573018E-01 -6.394607E-02
        42   2  2.720724E-01  1.921382E+00  7.445353E-01 -3.850542E-01  5.201227E-01 -3.371489E-02
        42   3 -8.356431E-01  1.804944E+00  1.384817E+00 -2.052837E-01  4.738010E-01 -6.375413E-02
        42   4  1.719297E+00 -9.659592E-01 -6.488473E-01 -5.424899E-01  4.931135E-01  2.209895E-01
        43   1  4.036830E-01  8.778369E-01  2.106825E+00 -5.603272E-01  5.323917E-01 -4.215838E-02
        43   2  1.734085E+00 -5.139829E-01 -1.089844E+00 -5.643090E-01  5.051326E-01  2.081408E-01
        43   3  6.396093E-01  5.603575E-01  1.031363E+00 -4.878174E-01  6.358165E-01 -7.438541E-02
        43   4 -8.193151E-01  1.214707E+00  1.945563E+00 -4.145759E-01  3.087814E-01 -8.301333E-02
        44   1  1.017656E+00 -5.182427E-01 -1.070312E+00 -4.326078E-01  1.086337E-01  5.679681E-02
        44   2  2.594049E-01  1.649691E-01 -3.983765E-01 -6.593510E-01  1.110209E-01  1.402439E-01
        44   3 -1.707448E+00 -1.224576E+00 -1.411203E+00 -2.256407E-03  1.586323E-01  4.758566E-02
        44   4  1.307663E+00 -3.749359E-01 -1.479910E-01 -4.327954E-01  4.644998E-01 -1.473602E-02
        45   1  1.082064E+00 -9.715481E-01 -3.767714E-01 -9.594651E-02  2.196668E-01  2.077347E-02
        45   2 -1.355277E+00  4.986795E-01  2.982853E-01 -8.208245E-02  5.476401E-01  9.923852E-02
        45   3  6.935496E-01  5.569432E-01 -1.498262E-01 -7.766439E-02  5.598700E-01  9.601821E-02
        45   4  1.361984E+00 -4.195840E-01 -2.437650E-01 -5.404977E-01  2.692552E-01  6.148759E-02
        46   1 -1.402471E+00 -5.564518E-01 -1.559197E-01 -7.542175E-02  1.075762E-01  3.749302E-02
        46   2 -5.094560E-01 -9.733861E-01 -2.900534E-01 -8.765514E-02  5.091821E-01 -2.187660E-02
        46   3 -1.378659E+00 -1.372071E+00 -1.363400E+00 -1.038725E-01  2.181644E-01 -5.623764E-02
        46   4 -2.215238E-01 -4.893356E-01 -3.305696E-01 -4.435392E-01  5.781745E-01 -3.460442E-02
        47   1  2.285028E+00 -4.391176E-01 -5.145828E-01  3.315583E-01 -2.266371E-01  1.040120E-01
        47   2  1.360665E-01  4.830489E-01  1.344803E+00  5.150578E-01 -4.672051E-01  1.366661E-03
        47   3  7.437273E-01  3.760813E-01  3.713801E-01  3.734716E-01 -3.687583E-01  3.342245E-03
        47   4  1.302292E-02  1.296207E+00  4.352139E-01  4.054262E-01 -4.833409E-01 -1.481766E-02
        48   1 -1.701538E+00 -4.378948E-01 -1.230246E+00  3.628639E-01  1.144543E-01  2.322080E-01
        48   2 -4.949452E-01  4.622890E-01  9.349792E-01  1.058810E-01  9.004913E-02 -8.862769E-02
        48   3  2.294344E-01  1.502534E-01  8.346832E-01  2.998853E-01 -8.561894E-02 -1.257531E-01
        48   4 -5.626043E-01 -4.499721E-01 -4.475901E-01  4.957654E-01 -7.165043E-01  1.039947E-01

 internal state variables (elem, integ.pnt.,values) for set EALL and time  0.3000000E+01

        37   1 -2.184185E-04 -2.058227E-04 -2.114661E-04  1.159554E-04 -2.021354E-04 -4.280843E-05 -9.317936E-05 -8.856407E-05 -9.124903E-05  4.933641E-05 -8.561542E-05 -1.838919E-05  6.568236E+02  9.065631E-01
        37   2 -3.705693E-05 -1.865984E-04 -3.794270E-05  1.259283E-04 -6.700968E-04 -1.306204E-05 -1.565762E-05 -8.033709E-05 -1.673709E-05  5.342957E-05 -2.854639E-04 -5.626048E-06  6.568236E+02  9.065631E-01
        37   3 -4.063081E-04  1.421036E-05  1.186596E-04  5.509313E-05 -2.305597E-05  5.618518E-05 -1.957976E-04  4.400772E-06  5.472450E-05  2.588266E-05 -9.638354E-06  2.749329E-05  6.792291E+02  1.366842E+00
        37   4  2.691356E-05 -1.026691E-04 -6.767229E-05  5.874450E-04 -7.769226E-04 -2.405672E-05  1.181205E-05 -4.432338E-05 -2.949315E-05  2.499637E-04 -3.312639E-04 -1.035003E-05  6.568236E+02  9.065631E-01
        38   1  1.925130E-08 -1.086091E-05  7.871762E-05 -1.655150E-04  5.209529E-05 -6.987379E-05 -4.614101E-08 -4.008317E-06  2.976746E-05 -6.233266E-05  1.966363E-05 -2.624300E-05  6.137920E+02  4.120196E-01
        38   2 -7.763359E-05 -2.984623E-05 -7.600879E-05 -2.622760E-04  5.373066E-04  4.120524E-05 -3.085577E-05 -1.174213E-05 -2.976725E-05 -1.049678E-04  2.142286E-04  1.615166E-05  6.361080E+02  6.201920E-01
        38   3 -8.048179E-05  4.537706E-05  8.547060E-05 -1.546817E-04 -9.559042E-05 -2.949006E-05 -3.032378E-05  1.718964E-05  3.229625E-05 -5.819054E-05 -3.576736E-05 -1.105951E-05  6.137920E+02  4.120196E-01
        38   4 -2.265418E-04 -1.159977E-05 -1.803519E-04 -2.747432E-04 -5.824591E-05  1.630369E-04 -9.004424E-05 -4.359225E-06 -7.121301E-05 -1.095846E-04 -2.302752E-05  6.462650E-05  6.361080E+02  6.201920E-01
        39   1  2.934597E-04 -2.473597E-04 -8.728615E-05  1.469723E-04 -3.374408E-04  6.128802E-05  1.300601E-04 -1.105072E-04 -3.888428E-05  6.430287E-05 -1.465889E-04  2.724240E-05  6.637473E+02  1.029205E+00
        39   2  3.515317E-04 -1.618053E-04 -1.229648E-04  7.252007E-04 -4.588603E-04  1.569679E-04  1.560628E-04 -7.256097E-05 -5.478214E-05  3.189465E-04 -2.002489E-04  6.968956E-05  6.637473E+02  1.029205E+00
        39   3  1.493091E-04  1.830271E-04 -7.593193E-05  9.337771E-05 -7.732514E-04  1.689266E-04  7.622710E-05  8.987575E-05 -3.954561E-05  4.533117E-05 -3.905854E-04  8.644264E-05  6.861527E+02  1.551751E+00
        39   4 -3.786833E-04  2.721601E-04  1.371804E-04  7.444087E-05 -5.762605E-04  1.324369E-04 -1.906114E-04  1.352620E-04  6.719123E-05  3.657105E-05 -2.912368E-04  6.777422E-05  6.861527E+02  1.551751E+00
        40   1 -3.722586E-04  4.177907E-04  4.869409E-04  4.162081E-04 -5.701274E-04 -6.963031E-06 -1.965724E-04  2.214895E-04  2.595372E-04  2.221157E-04 -3.043480E-04 -3.207854E-06  6.930764E+02  1.761676E+00
        40   2 -1.510603E-04  5.086011E-04  2.739398E-04  5.624875E-04 -6.521258E-04 -8.550045E-05 -8.026016E-05  2.692949E-04  1.473721E-04  3.004263E-04 -3.478207E-04 -4.461610E-05  6.930764E+02  1.761676E+00
        40   3 -1.730238E-04  2.886355E-04  5.656103E-04  6.670274E-04 -7.597505E-04 -9.782407E-05 -9.156448E-05  1.539776E-04  3.010145E-04  3.534615E-04 -4.056557E-04 -5.103936E-05  6.930764E+02  1.761676E+00
        40   4  1.913104E-04 -1.223049E-04 -1.546183E-04  6.648003E-04 -5.814738E-04  1.394838E-04  8.770491E-05 -5.725912E-05 -7.246245E-05  3.024931E-04 -2.645552E-04  6.461591E-05  6.706709E+02  1.168439E+00
        41   1  3.051083E-04 -1.317768E-04 -9.935786E-05  6.008571E-04 -7.351068E-04  9.357281E-07  1.311252E-04 -5.665377E-05 -4.308129E-05  2.549568E-04 -3.134866E-04  4.752959E-07  6.568236E+02  9.065631E-01
        41   2  2.737619E-04 -1.232017E-04 -2.671891E-04  4.866875E-04 -1.558356E-04  6.297479E-05  1.173617E-04 -5.293731E-05 -1.151452E-04  2.063381E-04 -6.607032E-05  2.714252E-05  6.568236E+02  9.065631E-01
        41   3  5.497070E-05  7.570554E-05 -6.596741E-05  9.072678E-04 -1.324617E-04  1.505731E-04  2.648120E-05  3.573489E-05 -3.517791E-05  4.366233E-04 -6.211314E-05  7.374419E-05  6.792291E+02  1.366842E+00
        41   4 -2.708793E-04 -1.696847E-04 -2.362552E-04  3.736621E-05 -1.237834E-04  5.443434E-05 -1.159895E-04 -7.288391E-05 -1.018889E-04  1.433303E-05 -5.296620E-05  2.344071E-05  6.568236E+02  9.065631E-01
        42   1  3.598160E-05  8.008092E-05  2.747042E-05 -2.667127E-04  1.969346E-04 -2.929270E-05  1.336223E-05  2.971171E-05  1.018558E-05 -9.898871E-05  7.308962E-05 -1.089987E-05  6.068960E+02  3.631064E-01
        42   2 -1.286375E-05  1.639931E-04  3.800033E-05 -1.592787E-04  2.166603E-04 -1.739798E-05 -4.787725E-06  6.085127E-05  1.406069E-05 -5.903425E-05  8.030578E-05 -6.496184E-06  6.068960E+02  3.631064E-01
        42   3 -1.246619E-04  1.590268E-04  1.198339E-04 -8.246238E-05  2.027844E-04 -2.791971E-05 -4.628359E-05  5.900182E-05  4.447603E-05 -3.052802E-05  7.524627E-05 -1.036830E-05  6.068960E+02  3.631064E-01
        42   4  2.721601E-04 -1.412405E-04 -1.017869E-04 -3.706398E-04  3.401931E-04  1.334452E-04  1.060217E-04 -5.467981E-05 -3.949350E-05 -1.450370E-04  1.331423E-04  5.180651E-05  6.292120E+02  5.465655E-01
        43   1 -7.279948E-06  4.307324E-05  1.852285E-04 -2.362180E-04  2.205014E-04 -2.064088E-05 -2.734268E-06  1.594276E-05  6.874969E-05 -8.760902E-05  8.172568E-05 -7.698394E-06  6.068960E+02  3.631064E-01
        43   2  2.737773E-04 -7.695476E-05 -1.664094E-04 -3.801191E-04  3.534182E-04  1.248899E-04  1.066438E-04 -2.981188E-05 -6.447865E-05 -1.486066E-04  1.384504E-04  4.846997E-05  6.292120E+02  5.465655E-01
        43   3  3.729816E-05  2.799237E-05  8.279912E-05 -2.071713E-04  2.755458E-04 -3.303875E-05  1.384640E-05  1.038092E-05  3.073182E-05 -7.685987E-05  1.022992E-04 -1.228080E-05  6.068960E+02  3.631064E-01
        43   4 -1.233459E-04  9.604795E-05  1.819863E-04 -1.727462E-04  1.315703E-04 -3.573638E-05 -4.579961E-05  3.563567E-05  6.754277E-05 -6.404256E-05  4.881252E-05 -1.326558E-05  6.068960E+02  3.631064E-01
        44   1  2.157840E-04 -8.368549E-05 -2.026460E-04 -3.825222E-04  1.017276E-04  4.635383E-05  8.741898E-05 -3.380023E-05 -8.201769E-05 -1.564389E-04  4.179044E-05  1.880011E-05  6.430040E+02  7.037366E-01
        44   2  3.259594E-05  2.580086E-05 -3.929555E-05 -3.636425E-04  7.020954E-05  7.011212E-05  1.238004E-05  9.906351E-06 -1.463668E-05 -1.387774E-04  2.695763E-05  2.661704E-05  6.206880E+02  4.675218E-01
        44   3 -2.337980E-04 -1.276447E-04 -1.733831E-04 -2.984557E-05  1.311900E-04  3.823226E-05 -9.506571E-05 -5.164889E-05 -7.014801E-05 -1.312791E-05  5.332718E-05  1.547819E-05  6.430040E+02  7.037366E-01
        44   4  2.378624E-04 -9.183420E-05 -4.393438E-05 -3.880782E-04  4.103827E-04 -1.235228E-05  9.639878E-05 -3.713298E-05 -1.754670E-05 -1.589854E-04  1.679701E-04 -5.066792E-06  6.430040E+02  7.037366E-01
        45   1  2.047161E-04 -1.555406E-04 -6.130798E-05 -7.728667E-05  1.983907E-04  1.321192E-05  8.138370E-05 -6.137864E-05 -2.428777E-05 -3.094223E-05  7.995224E-05  5.207226E-06  6.361080E+02  6.201920E-01
        45   2 -1.609931E-04  7.625516E-05  5.499998E-05 -4.388093E-05  2.709880E-04  4.444574E-05 -6.060900E-05  2.878962E-05  2.082276E-05 -1.656085E-05  1.019574E-04  1.665048E-05  6.137920E+02  4.120196E-01
        45   3  6.502494E-05  5.815362E-05 -3.188142E-05 -4.190863E-05  2.735309E-04  4.334454E-05  2.440491E-05  2.200051E-05 -1.191876E-05 -1.582346E-05  1.028500E-04  1.624463E-05  6.137920E+02  4.120196E-01
        45   4  2.334445E-04 -7.908556E-05 -5.994331E-05 -4.083057E-04  2.339806E-04  4.202257E-05  9.283419E-05 -3.103676E-05 -2.376121E-05 -1.628653E-04  9.409305E-05  1.662585E-05  6.361080E+02  6.201920E-01
        46   1 -1.540944E-04 -2.418098E-05  2.956893E-05 -4.583492E-05  7.113751E-05  1.821574E-05 -5.878100E-05 -8.932756E-06  1.155362E-05 -1.757363E-05  2.736552E-05  6.911645E-06  6.206880E+02  4.675218E-01
        46   2 -5.844318E-05 -1.439113E-04 -6.796408E-06 -7.944409E-05  4.488479E-04 -1.952869E-05 -2.384505E-05 -5.816532E-05 -2.516380E-06 -3.257836E-05  1.835904E-04 -7.973951E-06  6.430040E+02  7.037366E-01
        46   3 -1.763513E-04 -1.620716E-04 -1.708733E-04 -8.862366E-05  1.981826E-04 -4.765027E-05 -7.188766E-05 -6.552404E-05 -6.916969E-05 -3.618428E-05  8.121918E-05 -1.939121E-05  6.430040E+02  7.037366E-01
        46   4 -2.191669E-05 -6.455792E-05 -3.491009E-05 -3.819976E-04  5.086080E-04 -2.992998E-05 -9.068740E-06 -2.594587E-05 -1.393050E-05 -1.561253E-04  2.079709E-04 -1.220126E-05  6.430040E+02  7.037366E-01
        47   1  6.616878E-04 -1.988021E-04 -2.343696E-04  3.788083E-04 -2.513924E-04  1.236325E-04  3.033893E-04 -9.189224E-05 -1.085974E-04  1.705628E-04 -1.125294E-04  5.647643E-05  6.706709E+02  1.168439E+00
        47   2 -5.638292E-05  9.272625E-05  4.792985E-04  8.568534E-04 -7.918655E-04  1.054099E-05 -2.991090E-05  4.917273E-05  2.554508E-04  4.548293E-04 -4.223637E-04  6.784436E-06  6.930764E+02  1.761676E+00
        47   3  2.329278E-04  7.410407E-05  8.147730E-05  6.230798E-04 -6.346762E-04  5.371427E-06  1.239247E-04  3.918544E-05  4.358403E-05  3.305587E-04 -3.386028E-04  2.834335E-06  6.930764E+02  1.761676E+00
        47   4 -8.384387E-05  4.422723E-04  9.641342E-05  6.724919E-04 -8.248164E-04 -1.568931E-05 -4.353948E-05  2.343587E-04  5.168913E-05  3.570334E-04 -4.395386E-04 -6.643075E-06  6.930764E+02  1.761676E+00
        48   1 -3.570961E-04 -8.498151E-06 -2.617182E-04  4.012093E-04  1.374362E-04  2.701799E-04 -1.579103E-04 -4.422602E-06 -1.172922E-04  1.763550E-04  6.115969E-05  1.198311E-04  6.637473E+02  1.029205E+00
        48   2 -2.296035E-04  1.176360E-04  3.205414E-04  1.611625E-04  1.453342E-04 -1.425822E-04 -1.148563E-04  5.718214E-05  1.598213E-04  8.077902E-05  7.539529E-05 -7.222852E-05  6.861527E+02  1.551751E+00
        48   3  2.277260E-05 -1.142064E-05  2.624253E-04  4.437167E-04 -1.280903E-04 -2.016440E-04  1.160671E-05 -7.041300E-06  1.301752E-04  2.218808E-04 -6.339289E-05 -1.016081E-04  6.861527E+02  1.551751E+00
        48   4 -1.068109E-04 -7.608259E-05 -9.715367E-05  5.325486E-04 -7.997267E-04  1.344533E-04 -4.724372E-05 -3.401579E-05 -4.414446E-05  2.333060E-04 -3.525301E-04  6.012365E-05  6.637473E+02  1.029205E+00

 volume (element, volume) for set EALL and time  0.3000000E+01

        37  2.087500E+07
        38  2.079167E+07
        39  2.087500E+07
        40  2.087500E+07
        41  2.087500E+07
        42  2.079167E+07
        43  2.079167E+07
        44  2.079167E+07
        45  2.079167E+07
        46  2.079167E+07
        47  2.087500E+07
        48  2.087500E+07

 displacements (vx,vy,vz) for set NALL and time  0.4000000E+01

         1 -2.674250E+00  5.832335E+00 -7.412810E+00
         2 -1.224053E+00  5.740731E+00  0.000000E+00
         3 -1.108278E+00  0.000000E+00 -7.326438E+00
         4  0.000000E+00  0.000000E+00  0.000000E+00
         5 -9.639304E+00 -1.893502E+00 -6.771826E-02
         6 -7.511468E+00 -1.899383E+00  0.000000E+00
         7 -7.429457E+00  0.000000E+00 -5.139771E-02
         8 -4.889542E+00  0.000000E+00  0.000000E+00
         9 -6.205859E+00  3.389115E+00  0.000000E+00
        10 -4.424187E+00  0.000000E+00  0.000000E+00
        11 -7.804037E+00  3.441263E+00 -5.341936E+00
        12 -6.079100E+00  0.000000E+00 -5.329995E+00
        13 -5.580578E+00 -9.102426E-01  0.000000E+00
        14 -7.585057E+00  1.027396E+00  0.000000E+00
        15 -3.945235E+00  4.732396E+00  0.000000E+00
        16 -3.438888E-01  2.891910E+00  0.000000E+00
        17 -5.363729E+00  0.000000E+00  0.000000E+00
        18 -2.502206E+00  0.000000E+00  0.000000E+00
        19 -7.758070E+00 -8.377874E-01 -6.242715E-02
        20 -9.701623E+00  9.302206E-01 -2.889608E+00
        21 -5.354949E+00  4.640662E+00 -6.389673E+00
        22 -1.559738E+00  2.951597E+00 -7.366275E+00
        23 -7.549089E+00  0.000000E+00 -2.961773E+00
        24 -3.792476E+00  0.000000E+00 -6.465042E+00
        25 -1.683398E+00  5.782159E+00 -3.749123E+00
        26 -7.769889E+00 -1.900371E+00 -1.492972E-01
        27 -3.478588E-01  0.000000E+00 -3.696325E+00
        28 -5.478788E+00  0.000000E+00 -8.880134E-02
        29 -5.900530E+00  5.053207E-01  0.000000E+00
        30 -4.866823E+00  1.679965E+00  0.000000E+00
        31 -2.909529E+00  2.363033E+00  0.000000E+00
        32 -8.008839E+00  4.599207E-01 -2.908858E+00
        33 -4.200406E+00  2.336199E+00 -6.447399E+00
        34 -6.506615E+00  1.694080E+00 -5.338575E+00
        35 -7.999886E+00  9.737015E-01 -1.451419E+00
        36 -4.328841E+00  4.703058E+00 -3.218255E+00
        37 -6.604381E+00  3.385864E+00 -2.618661E+00
        38 -5.909031E+00  0.000000E+00 -1.515979E+00
        39 -2.854616E+00  0.000000E+00 -3.242829E+00
        40 -4.853878E+00  0.000000E+00 -2.610973E+00
        41 -7.162502E-01  2.947696E+00 -3.746579E+00
        42 -5.976195E+00 -8.552005E-01 -1.357914E-01
        43 -5.289296E+00  1.681786E+00 -2.638227E+00
        44 -6.384534E+00  5.124467E-01 -1.485019E+00
        45 -3.264107E+00  2.351108E+00 -3.223980E+00

 stresses (elem, integ.pnt.,sxx,syy,szz,sxy,sxz,syz) for set EALL and time  0.4000000E+01

        37   1 -1.374632E+00 -1.226304E+00 -1.162176E+00  1.160760E-01 -2.098390E-01 -4.022049E-02
        37   2 -3.829047E-01 -8.512519E-01 -2.544633E-01  1.318310E-01 -6.578199E-01 -1.242780E-02
        37   3 -1.214777E+00 -1.102003E-02  2.618349E-01  4.447169E-02 -2.763281E-02  3.019008E-02
        37   4 -5.434166E-02 -4.377160E-01 -2.700280E-01  5.888743E-01 -7.525288E-01 -2.352782E-02
        38   1  1.271715E-01 -5.701049E-02  5.999280E-01 -3.210045E-01  8.875406E-02 -1.504350E-01
        38   2 -6.611584E-01 -4.351790E-01 -7.499923E-01 -3.130976E-01  6.823976E-01  7.382645E-02
        38   3 -5.533733E-01  3.348558E-01  6.279173E-01 -3.102274E-01 -2.325636E-01 -6.824801E-02
        38   4 -1.743396E+00 -6.377893E-01 -1.545481E+00 -3.504223E-01 -9.332311E-02  2.329242E-01
        39   1  9.442749E-01 -7.664855E-01 -2.790463E-01  1.418109E-01 -3.370838E-01  4.677576E-02
        39   2  1.148904E+00 -4.049627E-01 -3.281296E-01  6.487716E-01 -4.478817E-01  1.226035E-01
        39   3  4.895830E-01  6.540233E-01  2.245275E-02  8.406184E-02 -4.629847E-01  9.670710E-02
        39   4 -8.885525E-01  7.563483E-01  4.283413E-01  5.741923E-02 -3.338046E-01  7.381755E-02
        40   1 -6.436374E-01  1.192590E+00  1.236386E+00  2.276376E-01 -2.970698E-01 -6.915356E-03
        40   2 -6.158979E-02  1.473074E+00  8.098415E-01  3.102570E-01 -3.491036E-01 -5.407961E-02
        40   3 -6.501799E-02  9.435606E-01  1.495192E+00  3.860228E-01 -4.077882E-01 -6.344809E-02
        40   4  6.154106E-01 -3.234460E-01 -3.660816E-01  5.443506E-01 -4.716876E-01  9.424006E-02
        41   1  1.170282E+00 -4.023416E-01 -2.044257E-01  6.377949E-01 -6.982674E-01 -4.529468E-03
        41   2  9.722303E-01 -5.138304E-01 -9.364202E-01  5.220444E-01 -1.620125E-01  5.405238E-02
        41   3  2.339686E-01  2.940557E-01  1.202790E-02  6.155379E-01 -1.143128E-01  9.734294E-02
        41   4 -1.542333E+00 -1.140540E+00 -1.264733E+00  7.894307E-02 -1.174207E-01  4.730889E-02
        42   1  6.101691E-01  1.044944E+00  5.301182E-01 -6.225828E-01  4.527947E-01 -6.092818E-02
        42   2  2.768702E-01  1.943464E+00  7.603767E-01 -3.949363E-01  5.247614E-01 -2.982304E-02
        42   3 -8.256096E-01  1.826562E+00  1.379887E+00 -2.162637E-01  4.719764E-01 -6.292534E-02
        42   4  1.676226E+00 -1.012141E+00 -6.695145E-01 -5.173319E-01  4.607729E-01  2.232885E-01
        43   1  4.267448E-01  9.035918E-01  2.099463E+00 -5.684476E-01  5.410128E-01 -3.873026E-02
        43   2  1.694777E+00 -5.461216E-01 -1.123639E+00 -5.441671E-01  4.674081E-01  2.114901E-01
        43   3  6.374903E-01  5.656335E-01  1.021608E+00 -4.925979E-01  6.275765E-01 -7.247157E-02
        43   4 -8.057053E-01  1.229952E+00  1.937457E+00 -4.217957E-01  3.112413E-01 -8.315623E-02
        44   1  1.024097E+00 -5.241031E-01 -1.047535E+00 -4.071056E-01  9.760291E-02  5.472304E-02
        44   2  2.591674E-01  1.457365E-01 -4.530009E-01 -6.561009E-01  9.726949E-02  1.444256E-01
        44   3 -1.660329E+00 -1.215189E+00 -1.385427E+00  1.084281E-02  1.506781E-01  4.665544E-02
        44   4  1.304478E+00 -3.837791E-01 -1.692155E-01 -4.078296E-01  4.427453E-01 -1.481335E-02
        45   1  1.022812E+00 -9.978406E-01 -3.804412E-01 -8.928875E-02  1.857162E-01  2.333415E-02
        45   2 -1.336467E+00  4.724185E-01  2.462618E-01 -7.484650E-02  5.360107E-01  1.032278E-01
        45   3  6.787973E-01  5.277540E-01 -1.791169E-01 -7.094283E-02  5.503315E-01  9.924612E-02
        45   4  1.296985E+00 -4.597606E-01 -2.478884E-01 -5.271175E-01  2.342005E-01  6.308778E-02
        46   1 -1.415252E+00 -6.119286E-01 -2.094067E-01 -6.906516E-02  9.182462E-02  4.100184E-02
        46   2 -5.000159E-01 -9.754717E-01 -3.077178E-01 -8.257372E-02  4.788827E-01 -1.845420E-02
        46   3 -1.332339E+00 -1.359962E+00 -1.327784E+00 -1.011950E-01  2.007902E-01 -5.148664E-02
        46   4 -2.020839E-01 -5.007284E-01 -3.421969E-01 -4.335916E-01  5.430862E-01 -3.155579E-02
        47   1  2.206480E+00 -3.944961E-01 -4.398314E-01  3.408442E-01 -2.362218E-01  1.057498E-01
        47   2  1.350703E-01  4.543334E-01  1.233236E+00  4.887805E-01 -4.289141E-01 -4.828523E-03
        47   3  6.941974E-01  3.590899E-01  3.387757E-01  3.565790E-01 -3.362221E-01  3.211865E-03
        47   4 -1.300845E-02  1.231479E+00  3.928057E-01  3.849694E-01 -4.441358E-01 -2.180292E-02
        48   1 -1.615336E+00 -4.041557E-01 -1.120368E+00  3.507192E-01  1.069529E-01  2.207961E-01
        48   2 -4.753899E-01  4.859815E-01  8.992850E-01  1.046009E-01  8.133703E-02 -7.901141E-02
        48   3  2.455274E-01  1.772274E-01  8.097818E-01  2.977680E-01 -8.628264E-02 -1.163781E-01
        48   4 -5.242053E-01 -4.257456E-01 -3.823564E-01  4.896599E-01 -6.896384E-01  8.920704E-02

 internal state variables (elem, integ.pnt.,values) for set EALL and time  0.4000000E+01

        37   1 -2.893118E-04 -2.616144E-04 -2.640602E-04  1.532773E-04 -2.707636E-04 -5.523372E-05 -1.343199E-04 -1.232439E-04 -1.251250E-04  7.106064E-05 -1.248099E-04 -2.590704E-05  6.568236E+02  1.359845E+00
        37   2 -5.278397E-05 -2.365802E-04 -4.146351E-05  1.687831E-04 -8.808756E-04 -1.689011E-05 -2.401068E-05 -1.115555E-04 -2.061937E-05  7.788452E-05 -4.091870E-04 -7.933600E-06  6.568236E+02  1.359845E+00
        37   3 -5.005548E-04  2.903718E-05  1.573392E-04  7.184138E-05 -3.519903E-05  6.513561E-05 -2.739857E-04  1.161414E-05  8.189190E-05  3.802617E-05 -1.671451E-05  3.671968E-05  6.792291E+02  2.050262E+00
        37   4  2.948299E-05 -1.278540E-04 -7.978403E-05  7.769226E-04 -1.017243E-03 -3.128051E-05  1.459257E-05 -6.064061E-05 -3.858225E-05  3.601700E-04 -4.732038E-04 -1.466432E-05  6.568236E+02  1.359845E+00
        38   1  1.946016E-06 -1.809202E-05  1.044246E-04 -2.283779E-04  6.959904E-05 -9.919110E-05  6.339886E-07 -6.893641E-06  4.126216E-05 -8.960916E-05  2.744394E-05 -3.873818E-05  6.137920E+02  6.180295E-01
        38   2 -1.048294E-04 -4.265786E-05 -1.114135E-04 -3.411759E-04  7.125861E-04  6.077638E-05 -4.426405E-05 -1.774630E-05 -4.605921E-05 -1.455879E-04  3.023620E-04  2.511991E-05  6.361080E+02  9.302880E-01
        38   3 -1.104419E-04  5.901691E-05  1.142226E-04 -2.155791E-04 -1.411154E-04 -4.271237E-05 -4.337292E-05  2.339998E-05  4.507319E-05 -8.443965E-05 -5.477200E-05 -1.663250E-05  6.137920E+02  6.180295E-01
        38   4 -3.063341E-04 -2.011409E-05 -2.513861E-04 -3.642649E-04 -8.250261E-05  2.237123E-04 -1.293267E-04 -7.967056E-06 -1.051936E-04 -1.546125E-04 -3.447607E-05  9.406900E-05  6.361080E+02  9.302880E-01
        39   1  3.714960E-04 -3.055703E-04 -1.089572E-04  1.954524E-04 -4.549423E-04  7.615940E-05  1.819984E-04 -1.514429E-04 -5.375401E-05  9.384638E-05 -2.167468E-04  3.755357E-05  6.637473E+02  1.543808E+00
        39   2  4.396697E-04 -1.961817E-04 -1.543968E-04  9.422773E-04 -6.134833E-04  1.961372E-04  2.162721E-04 -9.794747E-05 -7.606925E-05  4.564032E-04 -2.937128E-04  9.650441E-05  6.637473E+02  1.543808E+00
        39   3  1.764476E-04  2.299773E-04 -8.393618E-05  1.286969E-04 -9.291146E-04  2.010861E-04  1.043031E-04  1.297017E-04 -5.153192E-05  7.014326E-05 -5.420428E-04  1.187829E-04  6.861527E+02  2.327627E+00
        39   4 -4.591828E-04  3.374180E-04  1.755007E-04  9.689798E-05 -6.858652E-04  1.561168E-04 -2.664326E-04  1.926814E-04  9.827886E-05  5.409805E-05 -4.015194E-04  9.252270E-05  6.861527E+02  2.327627E+00
        40   1 -4.507557E-04  5.001632E-04  5.701143E-04  4.909778E-04 -6.629977E-04 -1.008970E-05 -2.773233E-04  3.098085E-04  3.572999E-04  3.071605E-04 -4.169928E-04 -5.386960E-06  6.930764E+02  2.642514E+00
        40   2 -1.821641E-04  6.116281E-04  3.137970E-04  6.654752E-04 -7.640650E-04 -1.053259E-04 -1.127260E-04  3.779197E-04  1.995750E-04  4.161428E-04 -4.789696E-04 -6.388721E-05  6.930764E+02  2.642514E+00
        40   3 -2.046194E-04  3.401559E-04  6.655201E-04  8.008223E-04 -8.920280E-04 -1.216256E-04 -1.271256E-04  2.128215E-04  4.159018E-04  4.953883E-04 -5.592007E-04 -7.353914E-05  6.930764E+02  2.642514E+00
        40   4  2.461582E-04 -1.462222E-04 -1.816844E-04  8.545740E-04 -7.457177E-04  1.692516E-04  1.253381E-04 -7.707106E-05 -9.630094E-05  4.329548E-04 -3.780005E-04  8.815973E-05  6.706709E+02  1.752658E+00
        41   1  3.902629E-04 -1.684565E-04 -1.196164E-04  8.084044E-04 -9.577674E-04 -7.716787E-07  1.834436E-04 -7.921351E-05 -5.734512E-05  3.727807E-04 -4.460328E-04 -9.497349E-08  6.568236E+02  1.359845E+00
        41   2  3.551067E-04 -1.578457E-04 -3.349944E-04  6.566205E-04 -2.085057E-04  7.935598E-05  1.661382E-04 -7.415937E-05 -1.584498E-04  3.024505E-04 -9.619860E-05  3.749758E-05  6.568236E+02  1.359845E+00
        41   3  6.953515E-05  9.630447E-05 -6.356188E-05  1.119803E-03 -1.765135E-04  1.833121E-04  3.776393E-05  5.148351E-05 -4.099442E-05  6.120243E-04 -9.277971E-05  1.018700E-04  6.792291E+02  2.050262E+00
        41   4 -3.517641E-04 -2.176906E-04 -2.950485E-04  6.698062E-05 -1.607544E-04  6.879190E-05 -1.643996E-04 -1.022209E-04 -1.397486E-04  2.786201E-05 -7.509150E-05  3.246491E-05  6.568236E+02  1.359845E+00
        42   1  5.044895E-05  1.138047E-04  3.903664E-05 -3.773407E-04  2.776789E-04 -4.019562E-05  1.941631E-05  4.372083E-05  1.499042E-05 -1.450535E-04  1.067727E-04 -1.552153E-05  6.068960E+02  5.446597E-01
        42   2 -1.791518E-05  2.329926E-04  5.541806E-05 -2.292162E-04  3.100945E-04 -2.275235E-05 -6.909740E-06  8.951818E-05  2.120480E-05 -8.790208E-05  1.189775E-04 -8.847754E-06  6.068960E+02  5.446597E-01
        42   3 -1.755781E-04  2.262008E-04  1.691457E-04 -1.205408E-04  2.868393E-04 -3.911945E-05 -6.753668E-05  8.689322E-05  6.503495E-05 -4.612969E-05  1.102500E-04 -1.505677E-05  6.068960E+02  5.446597E-01
        42   4  3.733763E-04 -2.026876E-04 -1.434071E-04 -4.932931E-04  4.498313E-04  1.873699E-04  1.533659E-04 -8.244045E-05 -5.854717E-05 -2.040796E-04  1.862833E-04  7.655724E-05  6.292120E+02  8.198482E-01
        43   1 -8.679476E-06  6.294015E-05  2.613587E-04 -3.369863E-04  3.166466E-04 -2.757426E-05 -3.423208E-06  2.408408E-05  1.004957E-04 -1.293855E-04  1.214529E-04 -1.069212E-05  6.068960E+02  5.446597E-01
        43   2  3.759519E-04 -1.100479E-04 -2.367454E-04 -5.092652E-04  4.644486E-04  1.759548E-04  1.543971E-04 -4.479904E-05 -9.644895E-05 -2.103598E-04  1.926306E-04  7.184761E-05  6.292120E+02  8.198482E-01
        43   3  5.262663E-05  4.004284E-05  1.166506E-04 -2.945402E-04  3.874672E-04 -4.597032E-05  2.023840E-05  1.536984E-05  4.485963E-05 -1.131455E-04  1.490580E-04 -1.771605E-05  6.068960E+02  5.446597E-01
        43   4 -1.734013E-04  1.366960E-04  2.569075E-04 -2.475877E-04  1.867802E-04 -5.049615E-05 -6.671493E-05  5.250825E-05  9.877647E-05 -9.499708E-05  7.175987E-05 -1.941560E-05  6.068960E+02  5.446597E-01
        44   1  2.931684E-04 -1.155458E-04 -2.734207E-04 -4.927464E-04  1.276718E-04  6.163690E-05  1.269257E-04 -4.979406E-05 -1.184289E-04 -2.166716E-04  5.658379E-05  2.679944E-05  6.430040E+02  1.055605E+00
        44   2  4.705698E-05  3.392732E-05 -6.470815E-05 -5.044609E-04  9.126073E-05  1.014326E-04  1.865122E-05  1.369242E-05 -2.502755E-05 -2.014630E-04  3.688335E-05  4.018248E-05  6.206880E+02  7.012827E-01
        44   3 -3.105507E-04 -1.738501E-04 -2.344832E-04 -2.382678E-05  1.731988E-04  5.128354E-05 -1.352919E-04 -7.517483E-05 -1.014996E-04 -1.251201E-05  7.551403E-05  2.223811E-05  6.430040E+02  1.055605E+00
        44   4  3.228160E-04 -1.259375E-04 -6.356524E-05 -4.976771E-04  5.298920E-04 -1.639169E-05  1.398209E-04 -5.437174E-05 -2.699942E-05 -2.192835E-04  2.330468E-04 -7.186369E-06  6.430040E+02  1.055605E+00
        45   1  2.746401E-04 -2.184602E-04 -8.396482E-05 -9.981473E-05  2.439249E-04  1.924495E-05  1.160954E-04 -9.128203E-05 -3.530179E-05 -4.265180E-05  1.055784E-04  7.995470E-06  6.361080E+02  9.302880E-01
        45   2 -2.228009E-04  1.031195E-04  7.143438E-05 -5.872928E-05  3.763225E-04  6.466711E-05 -8.737387E-05  4.061653E-05  2.831553E-05 -2.315126E-05  1.474665E-04  2.515327E-05  6.137920E+02  6.180295E-01
        45   3  9.207820E-05  7.721466E-05 -4.745036E-05 -5.593857E-05  3.818045E-04  6.280464E-05  3.595202E-05  3.051694E-05 -1.839314E-05 -2.206438E-05  1.494741E-04  2.444497E-05  6.137920E+02  6.180295E-01
        45   4  3.130441E-04 -1.148979E-04 -8.176805E-05 -5.429319E-04  2.921288E-04  5.845556E-05  1.323677E-04 -4.761852E-05 -3.441192E-05 -2.303541E-04  1.259188E-04  2.450083E-05  6.361080E+02  9.302880E-01
        46   1 -2.146745E-04 -4.199715E-05  3.316862E-05 -6.072070E-05  9.090305E-05  2.696227E-05 -8.566628E-05 -1.609964E-05  1.386567E-05 -2.445890E-05  3.686762E-05  1.065218E-05  6.206880E+02  7.012827E-01
        46   2 -7.687146E-05 -1.964473E-04 -1.315773E-05 -1.015139E-04  5.787270E-04 -2.465509E-05 -3.362496E-05 -8.485014E-05 -5.187474E-06 -4.478889E-05  2.544643E-04 -1.086688E-05  6.430040E+02  1.055605E+00
        46   3 -2.319756E-04 -2.208062E-04 -2.300256E-04 -1.162361E-04  2.521138E-04 -6.199671E-05 -1.014046E-04 -9.541955E-05 -9.968083E-05 -5.089378E-05  1.112708E-04 -2.711828E-05  6.430040E+02  1.055605E+00
        46   4 -2.611598E-05 -9.061359E-05 -5.048674E-05 -4.996793E-04  6.561036E-04 -3.864466E-05 -1.175039E-05 -3.882130E-05 -2.143361E-05 -2.190419E-04  2.883990E-04 -1.694694E-05  6.430040E+02  1.055605E+00
        47   1  8.346099E-04 -2.459104E-04 -2.848723E-04  5.020145E-04 -3.383539E-04  1.608141E-04  4.271582E-04 -1.272321E-04 -1.483420E-04  2.506432E-04 -1.676540E-04  8.145821E-05  6.706709E+02  1.752658E+00
        47   2 -6.387507E-05  1.108944E-04  5.623486E-04  1.023603E-03 -9.319032E-04  5.551100E-06 -4.036859E-05  6.872870E-05  3.521558E-04  6.350816E-04 -5.832736E-04  6.162813E-06  6.930764E+02  2.642514E+00
        47   3  2.750799E-04  8.969475E-05  9.407407E-05  7.443747E-04 -7.410129E-04  6.533098E-06  1.716435E-04  5.524591E-05  5.940985E-05  4.616488E-04 -4.651913E-04  4.011211E-06  6.930764E+02  2.642514E+00
        47   4 -1.056546E-04  5.307652E-04  1.107268E-04  8.044968E-04 -9.680398E-04 -2.686547E-05 -6.339257E-05  3.283746E-04  7.017716E-05  4.989592E-04 -6.060791E-04 -1.321878E-05  6.930764E+02  2.642514E+00
        48   1 -4.561066E-04 -5.665015E-06 -3.172055E-04  5.181418E-04  1.710618E-04  3.412379E-04 -2.226341E-04 -4.012793E-06 -1.583109E-04  2.512129E-04  8.438625E-05  1.673532E-04  6.637473E+02  1.543808E+00
        48   2 -2.839162E-04  1.538491E-04  3.911881E-04  1.980086E-04  1.711908E-04 -1.677485E-04 -1.630043E-04  8.516602E-05  2.249922E-04  1.140701E-04  1.025027E-04 -9.874332E-05  6.861527E+02  2.327627E+00
        48   3  3.111750E-05 -7.829950E-06  3.223291E-04  5.524233E-04 -1.592206E-04 -2.392557E-04  1.755159E-05 -6.948587E-06  1.843469E-04  3.164092E-04 -9.058187E-05 -1.399050E-04  6.861527E+02  2.327627E+00
        48   4 -1.353031E-04 -9.609188E-05 -1.112577E-04  6.984362E-04 -1.028275E-03  1.608168E-04 -6.618130E-05 -4.739775E-05 -5.693101E-05  3.366812E-04 -5.000404E-04  8.039133E-05  6.637473E+02  1.543808E+00

 volume (element, volume) for set EALL and time  0.4000000E+01

        37  2.087500E+07
        38  2.079167E+07
        39  2.087500E+07
        40  2.087500E+07
        41  2.087500E+07
        42  2.079167E+07
        43  2.079167E+07
        44  2.079167E+07
        45  2.079167E+07
        46  2.079167E+07
        47  2.087500E+07
        48  2.087500E+07

 displacements (vx,vy,vz) for set NALL and time  0.5000000E+01

         1 -3.504290E+00  5.452529E+00 -7.013082E+00
         2 -1.594751E+00  5.346639E+00  0.000000E+00
         3 -1.510978E+00  0.000000E+00 -6.913750E+00
         4  0.000000E+00  0.000000E+00  0.000000E+00
         5 -8.218503E+00 -4.205353E+00  2.355208E+00
         6 -5.545591E+00 -4.220698E+00  0.000000E+00
         7 -5.483427E+00  0.000000E+00  2.382931E+00
         8 -2.335910E+00  0.000000E+00  0.000000E+00
         9 -5.897152E+00  2.259387E+00  0.000000E+00
        10 -3.651295E+00  0.000000E+00  0.000000E+00
        11 -7.973887E+00  2.321255E+00 -4.147102E+00
        12 -5.793025E+00  0.000000E+00 -4.135158E+00
        13 -3.180992E+00 -2.064530E+00  0.000000E+00
        14 -6.610651E+00 -6.659528E-01  0.000000E+00
        15 -4.057735E+00  4.002944E+00  0.000000E+00
        16 -4.428582E-01  2.697994E+00  0.000000E+00
        17 -3.856772E+00  0.000000E+00  0.000000E+00
        18 -2.206636E+00  0.000000E+00  0.000000E+00
        19 -5.914659E+00 -1.979986E+00  2.363000E+00
        20 -9.266606E+00 -7.742291E-01 -1.089278E+00
        21 -5.914639E+00  3.893646E+00 -5.597225E+00
        22 -2.080131E+00  2.767598E+00 -6.959457E+00
        23 -6.602893E+00  0.000000E+00 -1.169802E+00
        24 -3.927170E+00  0.000000E+00 -5.687359E+00
        25 -2.185965E+00  5.394257E+00 -3.555851E+00
        26 -5.909850E+00 -4.215024E+00  1.050205E+00
        27 -4.587017E-01  0.000000E+00 -3.494591E+00
        28 -3.075532E+00  0.000000E+00  1.120278E+00
        29 -4.523096E+00 -3.402088E-01  0.000000E+00
        30 -4.207722E+00  1.112812E+00  0.000000E+00
        31 -2.722588E+00  1.997008E+00  0.000000E+00
        32 -7.175959E+00 -3.919464E-01 -1.111415E+00
        33 -4.444481E+00  1.965367E+00 -5.666097E+00
        34 -6.333036E+00  1.129810E+00 -4.144171E+00
        35 -7.142232E+00 -7.253660E-01 -5.531906E-01
        36 -4.556747E+00  3.967761E+00 -2.825488E+00
        37 -6.413471E+00  2.256346E+00 -2.013620E+00
        38 -4.541871E+00  0.000000E+00 -6.238490E-01
        39 -2.670392E+00  0.000000E+00 -2.855478E+00
        40 -4.203601E+00  0.000000E+00 -2.005764E+00
        41 -9.320963E-01  2.763186E+00 -3.553090E+00
        42 -3.701868E+00 -2.000850E+00  1.066523E+00
        43 -4.753984E+00  1.115288E+00 -2.036307E+00
        44 -5.137913E+00 -3.331628E-01 -5.904281E-01
        45 -3.189358E+00  1.982773E+00 -2.832537E+00

 stresses (elem, integ.pnt.,sxx,syy,szz,sxy,sxz,syz) for set EALL and time  0.5000000E+01

        37   1 -1.287412E+00 -1.130065E+00 -1.034709E+00  1.095767E-01 -1.994215E-01 -3.833539E-02
        37   2 -3.755387E-01 -7.769502E-01 -1.952214E-01  1.271540E-01 -6.128663E-01 -1.214617E-02
        37   3 -1.088008E+00  4.227326E-02  2.914145E-01  4.438091E-02 -3.105409E-02  2.188990E-02
        37   4 -7.502408E-02 -3.835825E-01 -2.106828E-01  5.552476E-01 -6.957638E-01 -2.351976E-02
        38   1  1.215514E-01 -7.853816E-02  5.429967E-01 -3.023415E-01  7.849967E-02 -1.504332E-01
        38   2 -6.348159E-01 -4.307766E-01 -7.623984E-01 -2.903164E-01  6.306604E-01  7.920158E-02
        38   3 -5.170873E-01  2.909428E-01  5.795046E-01 -2.934675E-01 -2.349530E-01 -7.059110E-02
        38   4 -1.655361E+00 -6.288231E-01 -1.494850E+00 -3.309091E-01 -9.838634E-02  2.272811E-01
        39   1  8.529287E-01 -6.767953E-01 -2.420387E-01  1.399064E-01 -3.339074E-01  3.980655E-02
        39   2  9.991810E-01 -3.368252E-01 -2.911634E-01  6.143982E-01 -4.405068E-01  1.068500E-01
        39   3  4.357149E-01  6.324975E-01  6.662834E-02  9.269547E-02 -4.106534E-01  8.373380E-02
        39   4 -7.868606E-01  7.277566E-01  4.386950E-01  5.884135E-02 -2.876402E-01  6.197442E-02
        40   1 -6.190235E-01  1.072908E+00  1.056782E+00  2.011606E-01 -2.512278E-01 -7.946168E-03
        40   2 -7.365958E-02  1.345377E+00  6.721256E-01  2.756957E-01 -3.016872E-01 -5.252762E-02
        40   3 -5.780549E-02  8.314061E-01  1.302619E+00  3.549583E-01 -3.533180E-01 -6.252684E-02
        40   4  6.145279E-01 -2.432516E-01 -2.534540E-01  5.192967E-01 -4.457284E-01  7.994158E-02
        41   1  1.069693E+00 -3.632955E-01 -1.416552E-01  6.219400E-01 -6.349128E-01 -7.785516E-03
        41   2  9.296631E-01 -4.630075E-01 -8.141728E-01  5.148804E-01 -1.552932E-01  4.804428E-02
        41   3  2.434226E-01  2.983024E-01  8.832466E-02  5.646528E-01 -1.186555E-01  8.751081E-02
        41   4 -1.415328E+00 -1.051609E+00 -1.117562E+00  9.005113E-02 -1.096460E-01  4.262727E-02
        42   1  5.797581E-01  1.014227E+00  5.072103E-01 -5.991011E-01  4.305915E-01 -5.518268E-02
        42   2  2.708328E-01  1.894762E+00  7.441640E-01 -3.896578E-01  5.075506E-01 -2.571633E-02
        42   3 -7.837624E-01  1.781399E+00  1.317215E+00 -2.208604E-01  4.509510E-01 -6.010748E-02
        42   4  1.568234E+00 -1.016396E+00 -6.643512E-01 -4.749001E-01  4.117806E-01  2.176738E-01
        43   1  4.356187E-01  8.972234E-01  2.005586E+00 -5.560565E-01  5.256068E-01 -3.379792E-02
        43   2  1.590396E+00 -5.601424E-01 -1.108909E+00 -5.081283E-01  4.108939E-01  2.073391E-01
        43   3  6.100014E-01  5.510549E-01  9.705027E-01 -4.801943E-01  5.930421E-01 -6.723222E-02
        43   4 -7.604426E-01  1.199906E+00  1.850794E+00 -4.117518E-01  3.036036E-01 -8.026657E-02
        44   1  1.004365E+00 -5.205040E-01 -1.001886E+00 -3.693118E-01  8.313608E-02  5.117638E-02
        44   2  2.537846E-01  1.292365E-01 -4.807757E-01 -6.331846E-01  7.918326E-02  1.417551E-01
        44   3 -1.560258E+00 -1.177987E+00 -1.325781E+00  2.383386E-02  1.370243E-01  4.477943E-02
        44   4  1.264393E+00 -3.866960E-01 -1.957995E-01 -3.709677E-01  4.092857E-01 -1.430980E-02
        45   1  9.214698E-01 -1.000059E+00 -3.711969E-01 -8.014227E-02  1.450195E-01  2.573457E-02
        45   2 -1.266803E+00  4.415458E-01  1.913320E-01 -6.389003E-02  5.040696E-01  1.027928E-01
        45   3  6.360824E-01  4.935505E-01 -1.979410E-01 -6.105452E-02  5.194632E-01  9.773234E-02
        45   4  1.181774E+00 -4.925780E-01 -2.412476E-01 -5.003634E-01  1.905594E-01  6.361656E-02
        46   1 -1.374312E+00 -6.342705E-01 -2.415754E-01 -5.964299E-02  7.236479E-02  4.339207E-02
        46   2 -4.735143E-01 -9.578627E-01 -3.233533E-01 -7.518903E-02  4.338419E-01 -1.402410E-02
        46   3 -1.239575E+00 -1.318361E+00 -1.256743E+00 -9.583654E-02  1.765077E-01 -4.476104E-02
        46   4 -1.722770E-01 -5.054165E-01 -3.503576E-01 -4.132357E-01  4.912092E-01 -2.731545E-02
        47   1  2.046437E+00 -3.308466E-01 -3.399639E-01  3.413571E-01 -2.394564E-01  1.040676E-01
        47   2  1.344986E-01  4.086441E-01  1.069995E+00  4.448423E-01 -3.737643E-01 -1.068484E-02
        47   3  6.135513E-01  3.279253E-01  2.898697E-01  3.252258E-01 -2.870924E-01  3.340213E-03
        47   4 -4.084510E-02  1.122746E+00  3.321428E-01  3.510240E-01 -3.853515E-01 -2.781597E-02
        48   1 -1.466204E+00 -3.482968E-01 -9.527260E-01  3.271465E-01  9.436823E-02  2.015032E-01
        48   2 -4.410433E-01  4.925372E-01  8.254066E-01  9.773157E-02  7.045878E-02 -6.592028E-02
        48   3  2.536707E-01  1.974237E-01  7.515566E-01  2.856053E-01 -8.156839E-02 -1.003535E-01
        48   4 -4.663664E-01 -3.845352E-01 -2.893146E-01  4.687342E-01 -6.378689E-01  6.871881E-02

 internal state variables (elem, integ.pnt.,values) for set EALL and time  0.5000000E+01

        37   1 -3.433871E-04 -3.016639E-04 -2.975289E-04  1.814226E-04 -3.231323E-04 -6.468924E-05 -1.740295E-04 -1.558673E-04 -1.554716E-04  9.191178E-05 -1.626271E-04 -3.316588E-05  6.568236E+02  1.813126E+00
        37   2 -6.729219E-05 -2.717994E-04 -3.954209E-05  2.023907E-04 -1.036121E-03 -1.991898E-05 -3.297879E-05 -1.406867E-04 -2.272049E-05  1.018157E-04 -5.266030E-04 -1.020432E-05  6.568236E+02  1.813126E+00
        37   3 -5.559049E-04  4.418580E-05  1.870449E-04  8.478287E-05 -4.697482E-05  6.665444E-05 -3.467102E-04  2.046983E-05  1.095319E-04  5.040499E-05 -2.489069E-05  4.397539E-05  6.792291E+02  2.733683E+00
        37   4  2.778185E-05 -1.439986E-04 -8.428501E-05  9.196701E-04 -1.191766E-03 -3.727249E-05  1.596228E-05 -7.531151E-05 -4.566834E-05  4.658910E-04 -6.070313E-04 -1.901169E-05  6.568236E+02  1.813126E+00
        38   1  4.187409E-06 -2.557766E-05  1.253681E-04 -2.826279E-04  8.342733E-05 -1.263413E-04  1.484520E-06 -1.009180E-05  5.186988E-05 -1.157873E-04  3.446794E-05 -5.137346E-05  6.137920E+02  8.240393E-01
        38   2 -1.270157E-04 -5.393381E-05 -1.441289E-04 -4.030450E-04  8.510587E-04  7.978320E-05 -5.712935E-05 -2.379179E-05 -6.302570E-05 -1.837324E-04  3.853664E-04  3.479351E-05  6.361080E+02  1.240384E+00
        38   3 -1.358641E-04  6.944654E-05  1.382050E-04 -2.686087E-04 -1.844425E-04 -5.550887E-05 -5.574583E-05  2.889889E-05  5.705491E-05 -1.097925E-04 -7.440587E-05 -2.246320E-05  6.137920E+02  8.240393E-01
        38   4 -3.716982E-04 -2.854228E-05 -3.117897E-04 -4.368237E-04 -1.054941E-04  2.755987E-04 -1.671133E-04 -1.193919E-05 -1.386406E-04 -1.976826E-04 -4.659490E-05  1.231607E-04  6.361080E+02  1.240384E+00
        39   1  4.228465E-04 -3.423324E-04 -1.224674E-04  2.340175E-04 -5.489666E-04  8.471264E-05  2.299218E-04 -1.888041E-04 -6.722694E-05  1.233997E-04 -2.871366E-04  4.663642E-05  6.637473E+02  2.058411E+00
        39   2  4.929236E-04 -2.149365E-04 -1.743506E-04  1.101682E-03 -7.356861E-04  2.199720E-04  2.701640E-04 -1.201126E-04 -9.546506E-05  5.889151E-04 -3.869085E-04  1.205751E-04  6.637473E+02  2.058411E+00
        39   3  1.873113E-04  2.613660E-04 -8.023459E-05  1.615915E-04 -1.005590E-03  2.141815E-04  1.290980E-04  1.688302E-04 -5.982029E-05  9.810025E-05 -6.802226E-04  1.473226E-04  6.861527E+02  3.103503E+00
        39   4 -5.015658E-04  3.780565E-04  2.042143E-04  1.149346E-04 -7.329298E-04  1.645647E-04 -3.365370E-04  2.479494E-04  1.300206E-04  7.248652E-05 -4.998108E-04  1.140004E-04  6.861527E+02  3.103503E+00
        40   1 -4.933409E-04  5.406999E-04  5.980057E-04  5.213275E-04 -6.902933E-04 -1.340751E-05 -3.539478E-04  3.921239E-04  4.437430E-04  3.841569E-04 -5.154468E-04 -8.055540E-06  6.930764E+02  3.523352E+00
        40   2 -1.989865E-04  6.651450E-04  3.200385E-04  7.087295E-04 -8.039431E-04 -1.183475E-04 -1.435361E-04  4.801708E-04  2.434809E-04  5.213583E-04 -5.958276E-04 -8.302993E-05  6.930764E+02  3.523352E+00
        40   3 -2.173929E-04  3.612076E-04  7.031351E-04  8.688414E-04 -9.391741E-04 -1.379404E-04 -1.592649E-04  2.661757E-04  5.188494E-04  6.284411E-04 -6.958673E-04 -9.615958E-05  6.930764E+02  3.523352E+00
        40   4  2.858218E-04 -1.573599E-04 -1.901784E-04  9.908372E-04 -8.612654E-04  1.848365E-04  1.619843E-04 -9.410635E-05 -1.154313E-04  5.596309E-04 -4.872610E-04  1.089041E-04  6.706709E+02  2.336877E+00
        41   1  4.496823E-04 -1.945819E-04 -1.290728E-04  9.741753E-04 -1.114510E-03 -3.696204E-06  2.319890E-04 -1.003452E-04 -6.897425E-05  4.891848E-04 -5.692235E-04 -1.232923E-06  6.568236E+02  1.813126E+00
        41   2  4.160752E-04 -1.828667E-04 -3.789954E-04  7.946808E-04 -2.493678E-04  9.026074E-05  2.128724E-04 -9.416085E-05 -1.975206E-04  3.982661E-04 -1.255188E-04  4.693168E-05  6.568236E+02  1.813126E+00
        41   3  8.040647E-05  1.104683E-04 -5.130001E-05  1.248079E-03 -2.135682E-04  2.013181E-04  4.910263E-05  6.684058E-05 -4.273629E-05  7.764468E-04 -1.252365E-04  1.276236E-04  6.792291E+02  2.733683E+00
        41   4 -4.102589E-04 -2.528929E-04 -3.321304E-04  9.680142E-05 -1.878844E-04  7.860118E-05 -2.099887E-04 -1.300636E-04 -1.735397E-04  4.347769E-05 -9.607328E-05  4.077534E-05  6.568236E+02  1.813126E+00
        42   1  6.313477E-05  1.445857E-04  4.933393E-05 -4.769746E-04  3.493491E-04 -4.932929E-05  2.523866E-05  5.761430E-05  1.966449E-05 -1.902687E-04  1.394673E-04 -1.981885E-05  6.068960E+02  7.262129E-01
        42   2 -2.251051E-05  2.960387E-04  7.157354E-05 -2.942202E-04  3.949628E-04 -2.684808E-05 -9.009061E-06  1.179721E-04  2.837957E-05 -1.169403E-04  1.571838E-04 -1.090329E-05  6.068960E+02  7.262129E-01
        42   3 -2.210340E-04  2.876887E-04  2.129396E-04 -1.573118E-04  3.619708E-04 -4.906669E-05 -8.825821E-05  1.146158E-04  8.499850E-05 -6.230788E-05  1.444080E-04 -1.961028E-05  6.068960E+02  7.262129E-01
        42   4  4.582196E-04 -2.579679E-04 -1.797807E-04 -5.913890E-04  5.342608E-04  2.346095E-04  1.989952E-04 -1.105096E-04 -7.742718E-05 -2.593569E-04  2.348933E-04  1.011233E-04  6.292120E+02  1.093131E+00
        43   1 -8.943332E-06  8.196277E-05  3.290179E-04 -4.294959E-04  4.046262E-04 -3.308847E-05 -3.751743E-06  3.246929E-05  1.313393E-04 -1.710040E-04  1.609290E-04 -1.337643E-05  6.068960E+02  7.262129E-01
        43   2  4.618912E-04 -1.400913E-04 -2.987334E-04 -6.148881E-04  5.481012E-04  2.210533E-04  2.005239E-04 -6.004953E-05 -1.283113E-04 -2.689832E-04  2.415608E-04  9.518058E-05  6.292120E+02  1.093131E+00
        43   3  6.633406E-05  5.126364E-05  1.465737E-04 -3.743350E-04  4.862042E-04 -5.714529E-05  2.647838E-05  2.039528E-05  5.852947E-05 -1.491490E-04  1.942337E-04 -2.288655E-05  6.068960E+02  7.262129E-01
        43   4 -2.178361E-04  1.739868E-04  3.236295E-04 -3.163321E-04  2.371660E-04 -6.382250E-05 -8.701901E-05  6.930801E-05  1.291703E-04 -1.258471E-04  9.451558E-05 -2.546396E-05  6.068960E+02  7.262129E-01
        44   1  3.583275E-04 -1.432548E-04 -3.308122E-04 -5.745113E-04  1.448264E-04  7.359654E-05  1.660646E-04 -6.595716E-05 -1.537029E-04 -2.723640E-04  6.954821E-05  3.439561E-05  6.430040E+02  1.407473E+00
        44   2  6.045583E-05  4.060184E-05 -8.991354E-05 -6.278701E-04  1.059582E-04  1.298657E-04  2.505177E-05  1.724786E-05 -3.623444E-05 -2.629017E-04  4.529191E-05  5.381993E-05  6.206880E+02  9.350436E-01
        44   3 -3.707141E-04 -2.128719E-04 -2.842015E-04 -1.353320E-05  2.048575E-04  6.188997E-05 -1.735302E-04 -9.852330E-05 -1.319321E-04 -1.002465E-05  9.615093E-05  2.879674E-05  6.430040E+02  1.407473E+00
        44   4  3.939899E-04 -1.550086E-04 -8.211109E-05 -5.791970E-04  6.211909E-04 -1.976168E-05  1.827090E-04 -7.157761E-05 -3.709196E-05 -2.751467E-04  2.941630E-04 -9.275373E-06  6.430040E+02  1.407473E+00
        45   1  3.295437E-04 -2.734770E-04 -1.023987E-04 -1.166694E-04  2.705032E-04  2.537084E-05  1.486396E-04 -1.212583E-04 -4.584561E-05 -5.336230E-05  1.264857E-04  1.109733E-05  6.361080E+02  1.240384E+00
        45   2 -2.762532E-04  1.262335E-04  8.345333E-05 -7.011260E-05  4.672553E-04  8.354300E-05 -1.130986E-04  5.194949E-05  3.475803E-05 -2.897765E-05  1.911458E-04  3.380533E-05  6.137920E+02  8.240393E-01
        45   3  1.157121E-04  9.337834E-05 -6.247134E-05 -6.676351E-05  4.757961E-04  8.076673E-05  4.712772E-05  3.859952E-05 -2.515454E-05 -2.760776E-05  1.944013E-04  3.271729E-05  6.137920E+02  8.240393E-01
        45   4  3.758999E-04 -1.478704E-04 -9.922943E-05 -6.531782E-04  3.289863E-04  7.314510E-05  1.695617E-04 -6.483949E-05 -4.450316E-05 -2.953058E-04  1.527698E-04  3.251039E-05  6.361080E+02  1.240384E+00
        46   1 -2.677229E-04 -6.007259E-05  3.405135E-05 -7.201823E-05  1.039886E-04  3.563818E-05 -1.120002E-04 -2.398215E-05  1.533985E-05 -3.059227E-05  4.469179E-05  1.467383E-05  6.206880E+02  9.350436E-01
        46   2 -9.096173E-05 -2.407133E-04 -2.040259E-05 -1.179264E-04  6.749226E-04 -2.748953E-05 -4.279853E-05 -1.112961E-04 -8.514996E-06 -5.610521E-05  3.199341E-04 -1.319655E-05  6.430040E+02  1.407473E+00
        46   3 -2.746080E-04 -2.703236E-04 -2.771325E-04 -1.382620E-04  2.900119E-04 -7.200015E-05 -1.291286E-04 -1.250584E-04 -1.289290E-04 -6.502686E-05  1.383344E-04 -3.402213E-05  6.430040E+02  1.407473E+00
        46   4 -2.735219E-05 -1.137722E-04 -6.489568E-05 -5.943297E-04  7.650697E-04 -4.465857E-05 -1.357592E-05 -5.201623E-05 -2.933285E-05 -2.797849E-04  3.625891E-04 -2.116977E-05  6.430040E+02  1.407473E+00
        47   1  9.486131E-04 -2.742142E-04 -3.102059E-04  5.999941E-04 -4.093553E-04  1.894757E-04  5.436067E-04 -1.595286E-04 -1.829152E-04  3.318905E-04 -2.243053E-04  1.064466E-04  6.706709E+02  2.336877E+00
        47   2 -6.386790E-05  1.200300E-04  5.918949E-04  1.104536E-03 -9.845188E-04 -3.173462E-06 -4.879071E-05  8.703902E-05  4.382419E-04  8.027257E-04 -7.274050E-04  3.377187E-06  6.930764E+02  3.523352E+00
        47   3  2.927187E-04  9.862487E-05  9.700911E-05  8.045057E-04 -7.761957E-04  7.313856E-06  2.150381E-04  7.067719E-05  7.300148E-05  5.840758E-04 -5.771155E-04  5.187722E-06  6.930764E+02  3.523352E+00
        47   4 -1.214922E-04  5.757866E-04  1.133779E-04  8.690927E-04 -1.020773E-03 -4.017428E-05 -8.371406E-05  4.165345E-04  8.585076E-05  6.311165E-04 -7.550244E-04 -2.212850E-05  6.930764E+02  3.523352E+00
        48   1 -5.239067E-04 -2.711940E-06 -3.469105E-04  6.011256E-04  1.921851E-04  3.891534E-04 -2.832589E-04 -3.339598E-06 -1.939167E-04  3.223238E-04  1.055057E-04  2.116542E-04  6.637473E+02  2.058411E+00
        48   2 -3.164851E-04  1.828291E-04  4.301422E-04  2.207664E-04  1.816115E-04 -1.764347E-04 -2.088660E-04  1.144976E-04  2.858412E-04  1.460722E-04  1.265117E-04 -1.216666E-04  6.861527E+02  3.103503E+00
        48   3  3.962645E-05 -3.762230E-07  3.562368E-04  6.234713E-04 -1.795822E-04 -2.556528E-04  2.453086E-05 -4.911458E-06  2.352007E-04  4.086790E-04 -1.171302E-04 -1.741846E-04  6.861527E+02  3.103503E+00
        48   4 -1.541758E-04 -1.103783E-04 -1.140387E-04  8.227616E-04 -1.188006E-03  1.719267E-04 -8.369954E-05 -6.017101E-05 -6.654930E-05  4.372208E-04 -6.393015E-04  9.695842E-05  6.637473E+02  2.058411E+00

 volume (element, volume) for set EALL and time  0.5000000E+01

        37  2.087500E+07
        38  2.079167E+07
        39  2.087500E+07
        40  2.087500E+07
        41  2.087500E+07
        42  2.079167E+07
        43  2.079167E+07
        44  2.079167E+07
        45  2.079167E+07
        46  2.079167E+07
        47  2.087500E+07
        48  2.087500E+07

 displacements (vx,vy,vz) for set NALL and time  0.6000000E+01

         1 -4.275602E+00  5.068512E+00 -6.607488E+00
         2 -1.945844E+00  4.951468E+00  0.000000E+00
         3 -1.885648E+00  0.000000E+00 -6.498241E+00
         4  0.000000E+00  0.000000E+00  0.000000E+00
         5 -6.788854E+00 -6.328802E+00  4.534838E+00
         6 -3.645963E+00 -6.356489E+00  0.000000E+00
         7 -3.586970E+00  0.000000E+00  4.576844E+00
         8  7.422570E-02  0.000000E+00  0.000000E+00
         9 -5.573928E+00  1.163193E+00  0.000000E+00
        10 -2.902202E+00  0.000000E+00  0.000000E+00
        11 -8.083625E+00  1.233323E+00 -2.993312E+00
        12 -5.482038E+00  0.000000E+00 -2.982725E+00
        13 -9.045643E-01 -3.127642E+00  0.000000E+00
        14 -5.642055E+00 -2.266071E+00  0.000000E+00
        15 -4.151055E+00  3.285927E+00  0.000000E+00
        16 -5.357806E-01  2.502814E+00  0.000000E+00
        17 -2.412941E+00  0.000000E+00  0.000000E+00
        18 -1.918128E+00  0.000000E+00  0.000000E+00
        19 -4.117973E+00 -3.033723E+00  4.545528E+00
        20 -8.761224E+00 -2.379383E+00  5.839764E-01
        21 -6.415723E+00  3.161873E+00 -4.823726E+00
        22 -2.563426E+00  2.580567E+00 -6.548477E+00
        23 -5.644553E+00  0.000000E+00  4.994507E-01
        24 -4.034474E+00  0.000000E+00 -4.926724E+00
        25 -2.656451E+00  5.003770E+00 -3.358281E+00
        26 -4.113519E+00 -6.341591E+00  2.135192E+00
        27 -5.600562E-01  0.000000E+00 -3.290274E+00
        28 -7.960837E-01  0.000000E+00  2.212454E+00
        29 -3.194977E+00 -1.137910E+00  0.000000E+00
        30 -3.562631E+00  5.629480E-01  0.000000E+00
        31 -2.534366E+00  1.637026E+00  0.000000E+00
        32 -6.318907E+00 -1.193633E+00  5.598368E-01
        33 -4.652907E+00  1.601565E+00 -4.902206E+00
        34 -6.125580E+00  5.825477E-01 -2.991412E+00
        35 -6.276214E+00 -2.327639E+00  2.816386E-01
        36 -4.754194E+00  3.245760E+00 -2.441133E+00
        37 -6.196076E+00  1.160695E+00 -1.431340E+00
        38 -3.218901E+00  0.000000E+00  2.090810E-01
        39 -2.483288E+00  0.000000E+00 -2.476407E+00
        40 -3.563765E+00  0.000000E+00 -1.424135E+00
        41 -1.132384E+00  2.575787E+00 -3.355501E+00
        42 -1.541306E+00 -3.057544E+00  2.154003E+00
        43 -4.220233E+00  5.660344E-01 -1.456474E+00
        44 -3.924579E+00 -1.131590E+00  2.427240E-01
        45 -3.103319E+00  1.620960E+00 -2.449591E+00

 stresses (elem, integ.pnt.,sxx,syy,szz,sxy,sxz,syz) for set EALL and time  0.6000000E+01

        37   1 -1.158138E+00 -9.951078E-01 -8.636956E-01  1.003524E-01 -1.851119E-01 -3.538961E-02
        37   2 -3.576736E-01 -6.734447E-01 -1.201085E-01  1.198871E-01 -5.513239E-01 -1.152728E-02
        37   3 -9.072358E-01  1.187743E-01  3.356156E-01  4.387191E-02 -3.614232E-02  1.153487E-02
        37   4 -9.712584E-02 -3.115407E-01 -1.356384E-01  5.077036E-01 -6.192450E-01 -2.325759E-02
        38   1  1.117065E-01 -9.811926E-02  4.708449E-01 -2.746114E-01  6.603627E-02 -1.484587E-01
        38   2 -5.932307E-01 -4.183992E-01 -7.673811E-01 -2.586982E-01  5.575849E-01  8.477423E-02
        38   3 -4.613054E-01  2.390134E-01  5.193181E-01 -2.676711E-01 -2.312166E-01 -7.214284E-02
        38   4 -1.521306E+00 -6.106372E-01 -1.415879E+00 -3.028416E-01 -1.032097E-01  2.175120E-01
        39   1  7.268956E-01 -5.526254E-01 -1.920048E-01  1.354635E-01 -3.264348E-01  3.077253E-02
        39   2  8.015898E-01 -2.447445E-01 -2.365034E-01  5.636287E-01 -4.251781E-01  8.619387E-02
        39   3  3.605493E-01  6.048288E-01  1.262997E-01  1.016985E-01 -3.383029E-01  6.357775E-02
        39   4 -6.439981E-01  6.878191E-01  4.536927E-01  5.999230E-02 -2.267643E-01  4.529072E-02
        40   1 -5.726056E-01  8.976425E-01  8.086510E-01  1.624594E-01 -1.885254E-01 -9.596945E-03
        40   2 -8.527847E-02  1.153003E+00  4.824110E-01  2.236238E-01 -2.356847E-01 -5.005045E-02
        40   3 -5.121284E-02  6.703631E-01  1.032257E+00  3.071755E-01 -2.750450E-01 -6.037990E-02
        40   4  5.943680E-01 -1.342314E-01 -1.049726E-01  4.807518E-01 -4.072891E-01  6.089615E-02
        41   1  9.290623E-01 -3.097865E-01 -6.435453E-02  5.942027E-01 -5.518663E-01 -1.159620E-02
        41   2  8.617711E-01 -3.942165E-01 -6.548252E-01  5.001194E-01 -1.456401E-01  3.995402E-02
        41   3  2.525226E-01  3.042959E-01  1.931866E-01  4.923771E-01 -1.225961E-01  7.132714E-02
        41   4 -1.238891E+00 -9.268107E-01 -9.225048E-01  1.033485E-01 -9.894388E-02  3.633674E-02
        42   1  5.313959E-01  9.569567E-01  4.698156E-01 -5.583055E-01  3.961757E-01 -4.715239E-02
        42   2  2.587259E-01  1.796322E+00  7.075789E-01 -3.741304E-01  4.759654E-01 -2.111251E-02
        42   3 -7.182783E-01  1.689426E+00  1.213702E+00 -2.218330E-01  4.164033E-01 -5.584458E-02
        42   4  1.407800E+00 -9.973125E-01 -6.450683E-01 -4.155361E-01  3.469443E-01  2.068529E-01
        43   1  4.362762E-01  8.705960E-01  1.850653E+00 -5.295858E-01  4.938680E-01 -2.734326E-02
        43   2  1.433452E+00 -5.659341E-01 -1.066253E+00 -4.569011E-01  3.360329E-01  1.982402E-01
        43   3  5.641620E-01  5.226834E-01  8.903460E-01 -4.559582E-01  5.394472E-01 -5.934001E-02
        43   4 -6.916192E-01  1.138039E+00  1.708651E+00 -3.899488E-01  2.892117E-01 -7.518510E-02
        44   1  9.638280E-01 -5.104527E-01 -9.385609E-01 -3.178994E-01  6.426205E-02  4.648586E-02
        44   2  2.438060E-01  1.103074E-01 -5.013141E-01 -5.954806E-01  5.685878E-02  1.348562E-01
        44   3 -1.415393E+00 -1.117934E+00 -1.239313E+00  3.990293E-02  1.187662E-01  4.229016E-02
        44   4  1.194257E+00 -3.856847E-01 -2.279245E-01 -3.194189E-01  3.613232E-01 -1.328735E-02
        45   1  7.845655E-01 -9.906805E-01 -3.548135E-01 -6.797037E-02  9.423697E-02  2.810919E-02
        45   2 -1.159106E+00  4.020649E-01  1.291018E-01 -4.980407E-02  4.570955E-01  9.973939E-02
        45   3  5.739762E-01  4.497075E-01 -2.122252E-01 -4.834790E-02  4.732904E-01  9.311596E-02
        45   4  1.023760E+00 -5.263820E-01 -2.285380E-01 -4.594926E-01  1.353334E-01  6.330519E-02
        46   1 -1.297502E+00 -6.443344E-01 -2.692252E-01 -4.743483E-02  4.873455E-02  4.524783E-02
        46   2 -4.321222E-01 -9.255821E-01 -3.396441E-01 -6.483211E-02  3.721742E-01 -8.702391E-03
        46   3 -1.105070E+00 -1.253368E+00 -1.157718E+00 -8.761143E-02  1.442314E-01 -3.636560E-02
        46   4 -1.327289E-01 -5.062831E-01 -3.580398E-01 -3.802233E-01  4.207057E-01 -2.227947E-02
        47   1  1.808852E+00 -2.416592E-01 -2.072758E-01  3.376663E-01 -2.404366E-01  9.939391E-02
        47   2  1.263959E-01  3.418368E-01  8.408991E-01  3.791123E-01 -2.947521E-01 -1.821494E-02
        47   3  5.005556E-01  2.818990E-01  2.232436E-01  2.791621E-01 -2.203881E-01  3.287776E-03
        47   4 -7.656093E-02  9.591942E-01  2.489512E-01  2.992785E-01 -3.037139E-01 -3.585396E-02
        48   1 -1.257929E+00 -2.699065E-01 -7.292819E-01  2.949051E-01  7.746051E-02  1.745875E-01
        48   2 -3.853506E-01  5.005868E-01  7.311324E-01  8.808975E-02  5.271142E-02 -4.899754E-02
        48   3  2.585195E-01  2.266351E-01  6.784392E-01  2.646763E-01 -7.620403E-02 -8.081429E-02
        48   4 -3.889444E-01 -3.221233E-01 -1.685429E-01  4.375237E-01 -5.655686E-01  4.303139E-02

 internal state variables (elem, integ.pnt.,values) for set EALL and time  0.6000000E+01

        37   1 -3.801998E-04 -3.260975E-04 -3.118628E-04  2.005072E-04 -3.597696E-04 -7.121319E-05 -2.110017E-04 -1.854124E-04 -1.809871E-04  1.113100E-04 -1.981594E-04 -3.997834E-05  6.568236E+02  2.266408E+00
        37   2 -8.035069E-05 -2.922529E-04 -3.212606E-05  2.268796E-04 -1.136468E-03 -2.216984E-05 -4.239352E-05 -1.667273E-04 -2.265162E-05  1.246432E-04 -6.341784E-04 -1.239184E-05  6.568236E+02  2.266408E+00
        37   3 -5.750214E-04  6.099959E-05  2.097253E-04  9.409960E-05 -5.870025E-05  6.108196E-05 -4.110250E-04  3.152258E-05  1.374831E-04  6.270025E-05 -3.425240E-05  4.863208E-05  6.792291E+02  3.417104E+00
        37   4  2.191518E-05 -1.511155E-04 -8.114041E-05  1.016109E-03 -1.301197E-03 -4.210153E-05  1.567029E-05 -8.772723E-05 -5.022194E-05  5.641115E-04 -7.285428E-04 -2.333408E-05  6.568236E+02  2.266408E+00
        38   1  6.508213E-06 -3.289918E-05  1.412534E-04 -3.266086E-04  9.334094E-05 -1.508815E-04  2.432200E-06 -1.346300E-05  6.133973E-05 -1.400170E-04  4.053788E-05 -6.392575E-05  6.137920E+02  1.030049E+00
        38   2 -1.437391E-04 -6.340254E-05 -1.737999E-04 -4.474048E-04  9.498063E-04  9.826152E-05 -6.905562E-05 -2.970941E-05 -8.041391E-05 -2.184381E-04  4.604808E-04  4.515917E-05  6.361080E+02  1.550480E+00
        38   3 -1.558626E-04  7.655040E-05  1.572045E-04 -3.119324E-04 -2.238195E-04 -6.764987E-05 -6.699011E-05  3.354660E-05  6.801910E-05 -1.333581E-04 -9.398317E-05 -2.845747E-05  6.137920E+02  1.030049E+00
        38   4 -4.210661E-04 -3.688498E-05 -3.607463E-04 -4.916920E-04 -1.272578E-04  3.180986E-04 -2.021687E-04 -1.627188E-05 -1.707659E-04 -2.377448E-04 -5.933870E-05  1.512781E-04  6.361080E+02  1.550480E+00
        39   1  4.476577E-04 -3.573636E-04 -1.277264E-04  2.629027E-04 -6.207378E-04  8.704454E-05  2.718290E-04 -2.208319E-04 -7.864023E-05  1.522872E-04 -3.564093E-04  5.404047E-05  6.637473E+02  2.573013E+00
        39   2  5.117818E-04 -2.177758E-04 -1.827679E-04  1.204632E-03 -8.264925E-04  2.287552E-04  3.152342E-04 -1.377420E-04 -1.120632E-04  7.124950E-04 -4.777224E-04  1.408262E-04  6.637473E+02  2.573013E+00
        39   3  1.829674E-04  2.795287E-04 -6.597118E-05  1.918753E-04 -1.009710E-03  2.101745E-04  1.491426E-04  2.063765E-04 -6.350301E-05  1.288468E-04 -7.986820E-04  1.706222E-04  6.861527E+02  3.879378E+00
        39   4 -5.095936E-04  3.972289E-04  2.244597E-04  1.287002E-04 -7.233403E-04  1.591174E-04 -3.979831E-04  2.994521E-04  1.617504E-04  9.128196E-05 -5.811721E-04  1.309661E-04  6.861527E+02  3.879378E+00
        40   1 -5.043890E-04  5.446931E-04  5.773213E-04  5.127229E-04 -6.603210E-04 -1.683421E-05 -4.234733E-04  4.650513E-04  5.142788E-04  4.494496E-04 -5.944102E-04 -1.120564E-05  6.930764E+02  4.404190E+00
        40   2 -2.030382E-04  6.753093E-04  2.965496E-04  6.992534E-04 -7.802666E-04 -1.253152E-04 -1.714157E-04  5.720006E-04  2.762225E-04  6.110176E-04 -6.923198E-04 -1.014492E-04  6.930764E+02  4.404190E+00
        40   3 -2.137308E-04  3.555641E-04  6.859953E-04  8.794962E-04 -9.117822E-04 -1.475519E-04 -1.864621E-04  3.115428E-04  6.046808E-04  7.473359E-04 -8.086981E-04 -1.182291E-04  6.930764E+02  4.404190E+00
        40   4  3.102624E-04 -1.555673E-04 -1.801397E-04  1.075933E-03 -9.301518E-04  1.864200E-04  1.963004E-04 -1.071895E-04 -1.282437E-04  6.787326E-04 -5.888519E-04  1.256773E-04  6.706709E+02  2.921097E+00
        41   1  4.832099E-04 -2.101116E-04 -1.277699E-04  1.098783E-03 -1.206146E-03 -7.845121E-06  2.749565E-04 -1.193170E-04 -7.725148E-05  6.015608E-04 -6.788862E-04 -3.023863E-06  6.568236E+02  2.266408E+00
        41   2  4.565643E-04 -1.982746E-04 -3.993061E-04  9.020380E-04 -2.786823E-04  9.566192E-05  2.561430E-04 -1.122923E-04 -2.307842E-04  4.920558E-04 -1.533261E-04  5.506304E-05  6.568236E+02  2.266408E+00
        41   3  8.755961E-05  1.192983E-04 -2.803610E-05  1.298384E-03 -2.438313E-04  2.052490E-04  6.010963E-05  8.157535E-05 -3.894985E-05  9.237107E-04 -1.588474E-04  1.497527E-04  6.792291E+02  3.417104E+00
        41   4 -4.461852E-04 -2.753887E-04 -3.475408E-04  1.272447E-04 -2.054540E-04  8.388543E-05 -2.511708E-04 -1.555791E-04 -2.018033E-04  6.134852E-05 -1.153477E-04  4.807190E-05  6.568236E+02  2.266408E+00
        42   1  7.354251E-05  1.714427E-04  5.798252E-05 -5.621079E-04  4.094931E-04 -5.630205E-05  3.060661E-05  7.096782E-05  2.404006E-05 -2.331048E-04  1.700664E-04 -2.360632E-05  6.068960E+02  9.077661E-01
        42   2 -2.647206E-05  3.510634E-04  8.579883E-05 -3.519925E-04  4.681075E-04 -2.970759E-05 -1.101095E-05  1.453257E-04  3.531633E-05 -1.452085E-04  1.935843E-04 -1.263645E-05  6.068960E+02  9.077661E-01
        42   3 -2.594346E-04  3.414753E-04  2.495119E-04 -1.918210E-04  4.254183E-04 -5.749622E-05 -1.077402E-04  1.413081E-04  1.036189E-04 -7.869218E-05  1.765092E-04 -2.390172E-05  6.068960E+02  9.077661E-01
        42   4  5.240336E-04 -3.051806E-04 -2.098472E-04 -6.624097E-04  5.913045E-04  2.738853E-04  2.412893E-04 -1.379550E-04 -9.553948E-05 -3.089631E-04  2.771619E-04  1.247736E-04  6.292120E+02  1.366414E+00
        43   1 -7.970667E-06  9.960200E-05  3.856299E-04 -5.107379E-04  4.808154E-04 -3.697422E-05 -3.653616E-06  4.088628E-05  1.601464E-04 -2.111841E-04  1.986603E-04 -1.563929E-05  6.068960E+02  9.077661E-01
        43   2  5.289212E-04 -1.663399E-04 -3.501934E-04 -6.948375E-04  6.017242E-04  2.589291E-04  2.434032E-04 -7.517194E-05 -1.589443E-04 -3.227449E-04  2.831721E-04  1.177754E-04  6.292120E+02  1.366414E+00
        43   3  7.790586E-05  6.134545E-05  1.714746E-04 -4.440818E-04  5.679938E-04 -6.606914E-05  3.234172E-05  2.532615E-05  7.125075E-05 -1.837965E-04  2.361477E-04 -2.757105E-05  6.068960E+02  9.077661E-01
        43   4 -2.550731E-04  2.066910E-04  3.796926E-04 -3.763903E-04  2.813236E-04 -7.527538E-05 -1.060058E-04  8.551232E-05  1.576383E-04 -1.555184E-04  1.164560E-04 -3.121730E-05  6.068960E+02  9.077661E-01
        44   1  4.106396E-04 -1.666950E-04 -3.747654E-04 -6.268295E-04  1.529179E-04  8.219813E-05  2.039655E-04 -8.202812E-05 -1.871147E-04 -3.216577E-04  8.012109E-05  4.140092E-05  6.430040E+02  1.759341E+00
        44   2  7.245650E-05  4.586538E-05 -1.138639E-04 -7.309598E-04  1.137773E-04  1.542079E-04  3.142531E-05  2.053637E-05 -4.787840E-05 -3.214516E-04  5.177476E-05  6.700136E-05  6.206880E+02  1.168805E+00
        44   3 -4.132154E-04 -2.446042E-04 -3.224604E-04  1.001615E-06  2.256330E-04  7.009827E-05 -2.085165E-04 -1.212773E-04 -1.608176E-04 -5.452805E-06  1.144988E-04  3.504224E-05  6.430040E+02  1.759341E+00
        44   4  4.505083E-04 -1.788478E-04 -9.984278E-05 -6.314626E-04  6.831971E-04 -2.234228E-05  2.240183E-04 -8.841294E-05 -4.786563E-05 -3.246681E-04  3.494388E-04 -1.125492E-05  6.430040E+02  1.759341E+00
        45   1  3.680682E-04 -3.199168E-04 -1.161242E-04 -1.276144E-04  2.776157E-04  3.154500E-05  1.778288E-04 -1.506974E-04 -5.554813E-05 -6.272518E-05  1.416102E-04  1.450104E-05  6.361080E+02  1.550480E+00
        45   2 -3.196794E-04  1.452763E-04  9.087564E-05 -7.751829E-05  5.408376E-04  1.003525E-04 -1.369361E-04  6.255964E-05  3.995014E-05 -3.375236E-05  2.315109E-04  4.231090E-05  6.137920E+02  1.030049E+00
        45   3  1.349925E-04  1.066418E-04 -7.634996E-05 -7.395110E-05  5.523928E-04  9.642776E-05  5.749710E-05  4.615788E-05 -3.197641E-05 -3.220223E-05  2.360930E-04  4.073218E-05  6.137920E+02  1.030049E+00
        45   4  4.204743E-04 -1.776905E-04 -1.117304E-04 -7.373642E-04  3.437582E-04  8.598054E-05  2.030843E-04 -8.245517E-05 -5.361709E-05 -3.559827E-04  1.733710E-04  4.053369E-05  6.361080E+02  1.550480E+00
        46   1 -3.116739E-04 -7.756148E-05  3.267002E-05 -7.929555E-05  1.099948E-04  4.402839E-05 -1.369635E-04 -3.228927E-05  1.604174E-05 -3.569488E-05  5.046257E-05  1.889781E-05  6.206880E+02  1.168805E+00
        46   2 -1.001985E-04 -2.766441E-04 -2.877029E-05 -1.284606E-04  7.361276E-04 -2.798943E-05 -5.094974E-05 -1.370436E-04 -1.263252E-05 -6.614894E-05  3.777496E-04 -1.482672E-05  6.430040E+02  1.759341E+00
        46   3 -3.030982E-04 -3.106737E-04 -3.120452E-04 -1.544164E-04  3.112606E-04 -7.757099E-05 -1.539566E-04 -1.539730E-04 -1.562252E-04 -7.818559E-05  1.613410E-04 -3.984134E-05  6.430040E+02  1.759341E+00
        46   4 -2.528344E-05 -1.341566E-04 -7.832934E-05 -6.647362E-04  8.341028E-04 -4.797101E-05 -1.426488E-05 -6.542265E-05 -3.763669E-05 -3.366997E-04  4.280008E-04 -2.472722E-05  6.430040E+02  1.759341E+00
        47   1  1.005316E-03 -2.839744E-04 -3.109175E-04  6.744830E-04 -4.653713E-04  2.095695E-04  6.481969E-04 -1.872360E-04 -2.103238E-04  4.127594E-04 -2.814586E-04  1.306780E-04  6.706709E+02  2.921097E+00
        47   2 -5.718942E-05  1.212511E-04  5.743618E-04  1.110155E-03 -9.601754E-04 -1.500549E-05 -5.452196E-05  1.033631E-04  5.092424E-04  9.506776E-04 -8.474459E-04 -1.812145E-06  6.930764E+02  4.404190E+00
        47   3  2.886301E-04  1.016869E-04  9.139347E-05  8.104898E-04 -7.482842E-04  7.873015E-06  2.519986E-04  8.492028E-05  8.353255E-05  6.926015E-04 -6.682403E-04  6.377864E-06  6.930764E+02  4.404190E+00
        47   4 -1.322004E-04  5.827080E-04  1.056901E-04  8.743964E-04 -9.937215E-04 -5.538693E-05 -1.040563E-04  4.952706E-04  9.770533E-05  7.478868E-04 -8.787551E-04 -3.356126E-05  6.930764E+02  4.404190E+00
        48   1 -5.609364E-04  8.742475E-07 -3.505339E-04  6.515122E-04  2.007438E-04  4.143441E-04 -3.375451E-04 -2.200931E-06 -2.220105E-04  3.875797E-04  1.235312E-04  2.511077E-04  6.637473E+02  2.573013E+00
        48   2 -3.295530E-04  2.056515E-04  4.411936E-04  2.302309E-04  1.775178E-04 -1.705607E-04 -2.508019E-04  1.447616E-04  3.401847E-04  1.754628E-04  1.459930E-04 -1.398427E-04  6.861527E+02  3.879378E+00
        48   3  4.788940E-05  1.079663E-05  3.675801E-04  6.604015E-04 -1.899280E-04 -2.530035E-04  3.240145E-05 -5.379956E-07  2.810732E-04  4.957149E-04 -1.420844E-04 -2.028391E-04  6.861527E+02  3.879378E+00
        48   4 -1.638954E-04 -1.186679E-04 -1.050471E-04  9.070389E-04 -1.280348E-03  1.678680E-04 -9.923243E-05 -7.179159E-05 -7.195790E-05  5.322911E-04 -7.655472E-04  1.086815E-04  6.637473E+02  2.573013E+00

 volume (element, volume) for set EALL and time  0.6000000E+01

        37  2.087500E+07
        38  2.079167E+07
        39  2.087500E+07
        40  2.087500E+07
        41  2.087500E+07
        42  2.079167E+07
        43  2.079167E+07
        44  2.079167E+07
        45  2.079167E+07
        46  2.079167E+07
        47  2.087500E+07
        48  2.087500E+07

 displacements (vx,vy,vz) for set NALL and time  0.7000000E+01

         1 -4.986340E+00  4.679870E+00 -6.195554E+00
         2 -2.276787E+00  4.555017E+00  0.000000E+00
         3 -2.231594E+00  0.000000E+00 -6.079621E+00
         4  0.000000E+00  0.000000E+00  0.000000E+00
         5 -5.348653E+00 -8.260618E+00  6.467179E+00
         6 -1.812627E+00 -8.303663E+00  0.000000E+00
         7 -1.739929E+00  0.000000E+00  6.526591E+00
         8  2.338916E+00  0.000000E+00  0.000000E+00
         9 -5.235432E+00  1.008633E-01  0.000000E+00
        10 -2.177621E+00  0.000000E+00  0.000000E+00
        11 -8.130655E+00  1.777655E-01 -1.880915E+00
        12 -5.145059E+00  0.000000E+00 -1.873076E+00
        13  1.247200E+00 -4.097966E+00  0.000000E+00
        14 -4.678585E+00 -3.771466E+00  0.000000E+00
        15 -4.224572E+00  2.581300E+00  0.000000E+00
        16 -6.224691E-01  2.306214E+00  0.000000E+00
        17 -1.033386E+00  0.000000E+00  0.000000E+00
        18 -1.636948E+00  0.000000E+00  0.000000E+00
        19 -2.367506E+00 -3.997318E+00  6.481184E+00
        20 -8.182658E+00 -3.883497E+00  2.128036E+00
        21 -6.856145E+00  2.445427E+00 -4.069261E+00
        22 -3.008588E+00  2.390236E+00 -6.132955E+00
        23 -4.673060E+00  0.000000E+00  2.044003E+00
        24 -4.113579E+00  0.000000E+00 -4.183124E+00
        25 -3.093890E+00  4.610383E+00 -3.156098E+00
        26 -2.380608E+00 -8.276857E+00  3.103622E+00
        27 -6.516184E-01  0.000000E+00 -3.083157E+00
        28  1.358251E+00  0.000000E+00  3.185742E+00
        29 -1.916829E+00 -1.886985E+00  0.000000E+00
        30 -2.931771E+00  3.056138E-02  0.000000E+00
        31 -2.344792E+00  1.283037E+00  0.000000E+00
        32 -5.436243E+00 -1.944162E+00  2.102836E+00
        33 -4.824534E+00  1.244768E+00 -4.155748E+00
        34 -5.882776E+00  5.248169E-02 -1.880662E+00
        35 -5.400561E+00 -3.831441E+00  1.051889E+00
        36 -4.920101E+00  2.537054E+00 -2.065144E+00
        37 -5.950937E+00  9.925579E-02 -8.720667E-01
        38 -1.940634E+00  0.000000E+00  9.817095E-01
        39 -2.293222E+00  0.000000E+00 -2.105569E+00
        40 -2.934541E+00  0.000000E+00 -8.663543E-01
        41 -1.316649E+00  2.385247E+00 -3.153513E+00
        42  5.044720E-01 -4.023621E+00  3.124614E+00
        43 -3.687844E+00  3.420375E-02 -8.989582E-01
        44 -2.744602E+00 -1.881922E+00  1.013296E+00
        45 -3.005561E+00  1.265630E+00 -2.075098E+00

 stresses (elem, integ.pnt.,sxx,syy,szz,sxy,sxz,syz) for set EALL and time  0.7000000E+01

        37   1 -9.918635E-01 -8.224329E-01 -6.508612E-01  8.870548E-02 -1.672481E-01 -3.146999E-02
        37   2 -3.307858E-01 -5.412798E-01 -2.938798E-02  1.102958E-01 -4.746551E-01 -1.066292E-02
        37   3 -6.793393E-01  2.134259E-01  3.887500E-01  4.266478E-02 -4.193346E-02 -8.877013E-04
        37   4 -1.207957E-01 -2.217727E-01 -4.488727E-02  4.474502E-01 -5.244840E-01 -2.269637E-02
        38   1  9.882151E-02 -1.186515E-01  3.821590E-01 -2.388895E-01  5.130370E-02 -1.449295E-01
        38   2 -5.388792E-01 -3.998721E-01 -7.675880E-01 -2.180453E-01  4.650069E-01  9.053781E-02
        38   3 -3.894571E-01  1.768699E-01  4.448699E-01 -2.343815E-01 -2.235756E-01 -7.316380E-02
        38   4 -1.347869E+00 -5.851892E-01 -1.313096E+00 -2.663317E-01 -1.078127E-01  2.040204E-01
        39   1  5.700242E-01 -3.950608E-01 -1.289835E-01  1.285490E-01 -3.146946E-01  1.981189E-02
        39   2  5.613402E-01 -1.299538E-01 -1.673727E-01  4.972859E-01 -4.025527E-01  6.090557E-02
        39   3  2.654556E-01  5.658179E-01  1.937172E-01  1.099551E-01 -2.478500E-01  3.910647E-02
        39   4 -4.664331E-01  6.326325E-01  4.647197E-01  6.011871E-02 -1.518991E-01  2.486472E-02
        40   1 -5.081967E-01  6.777303E-01  5.054772E-01  1.144404E-01 -1.124946E-01 -1.129264E-02
        40   2 -9.632822E-02  9.083813E-01  2.523238E-01  1.586998E-01 -1.544099E-01 -4.618677E-02
        40   3 -4.307147E-02  4.703997E-01  6.988947E-01  2.461730E-01 -1.791498E-01 -5.669561E-02
        40   4  5.605202E-01 -1.384466E-03  7.315959E-02  4.290530E-01 -3.568946E-01  3.740459E-02
        41   1  7.523844E-01 -2.424107E-01  2.762084E-02  5.560003E-01 -4.506053E-01 -1.593124E-02
        41   2  7.705857E-01 -3.081210E-01 -4.589370E-01  4.783018E-01 -1.331601E-01  2.988366E-02
        41   3  2.596836E-01  3.098708E-01  3.205527E-01  4.003458E-01 -1.250334E-01  5.080224E-02
        41   4 -1.017474E+00 -7.679215E-01 -6.813292E-01  1.187314E-01 -8.549500E-02  2.846564E-02
        42   1  4.685724E-01  8.785755E-01  4.210989E-01 -5.036180E-01  3.520235E-01 -3.715354E-02
        42   2  2.424053E-01  1.658653E+00  6.563070E-01 -3.508802E-01  4.335555E-01 -1.577068E-02
        42   3 -6.333444E-01  1.560602E+00  1.078108E+00 -2.203273E-01  3.711359E-01 -5.034791E-02
        42   4  1.202726E+00 -9.629220E-01 -6.163038E-01 -3.405259E-01  2.673158E-01  1.919503E-01
        43   1  4.313929E-01  8.291585E-01  1.647603E+00 -4.920936E-01  4.499549E-01 -1.941293E-02
        43   2  1.231824E+00 -5.670569E-01 -1.004633E+00 -3.914591E-01  2.442393E-01  1.852731E-01
        43   3  5.035923E-01  4.833193E-01  7.870129E-01 -4.223547E-01  4.704941E-01 -4.925327E-02
        43   4 -6.033477E-01  1.051175E+00  1.522620E+00 -3.591961E-01  2.694744E-01 -6.833037E-02
        44   1  9.048122E-01 -4.941842E-01 -8.571829E-01 -2.531881E-01  4.115929E-02  4.058869E-02
        44   2  2.292667E-01  8.679066E-02 -5.218553E-01 -5.450710E-01  3.045594E-02  1.250360E-01
        44   3 -1.230149E+00 -1.036297E+00 -1.126874E+00  5.949547E-02  9.631324E-02  3.904605E-02
        44   4  1.097741E+00 -3.809628E-01 -2.640833E-01 -2.537298E-01  2.994082E-01 -1.193170E-02
        45   1  6.164183E-01 -9.718584E-01 -3.329795E-01 -5.278577E-02  3.306488E-02  3.042680E-02
        45   2 -1.020046E+00  3.520645E-01  5.723557E-02 -3.287073E-02  3.975693E-01  9.493048E-02
        45   3  4.962074E-01  3.940682E-01 -2.251778E-01 -3.303206E-02  4.145256E-01  8.627113E-02
        45   4  8.279291E-01 -5.623023E-01 -2.114535E-01 -4.052993E-01  6.850750E-02  6.222704E-02
        46   1 -1.193226E+00 -6.503407E-01 -2.991451E-01 -3.260714E-02  2.079975E-02  4.681344E-02
        46   2 -3.776667E-01 -8.786156E-01 -3.559610E-01 -5.157159E-02  2.946240E-01 -2.593335E-03
        46   3 -9.331215E-01 -1.165234E+00 -1.031850E+00 -7.662331E-02  1.042273E-01 -2.641962E-02
        46   4 -8.455630E-02 -5.028487E-01 -3.645095E-01 -3.352404E-01  3.324535E-01 -1.644216E-02
        47   1  1.502669E+00 -1.314192E-01 -4.726370E-02  3.292954E-01 -2.387719E-01  9.205622E-02
        47   2  1.147599E-01  2.577092E-01  5.587690E-01  2.955856E-01 -1.973171E-01 -2.653536E-02
        47   3  3.589219E-01  2.228295E-01  1.412092E-01  2.199928E-01 -1.382083E-01  3.271406E-03
        47   4 -1.170702E-01  7.513169E-01  1.471736E-01  2.334788E-01 -2.029023E-01 -4.457354E-02
        48   1 -9.961188E-01 -1.699829E-01 -4.529560E-01  2.542761E-01  5.638729E-02  1.406669E-01
        48   2 -3.140565E-01  5.033543E-01  6.122417E-01  7.494136E-02  3.046044E-02 -2.861917E-02
        48   3  2.585643E-01  2.579866E-01  5.853137E-01  2.357334E-01 -6.841841E-02 -5.661380E-02
        48   4 -2.932688E-01 -2.417078E-01 -2.125150E-02  3.963986E-01 -4.742305E-01  1.235846E-02

 internal state variables (elem, integ.pnt.,values) for set EALL and time  0.7000000E+01

        37   1 -3.999508E-04 -3.349782E-04 -3.070623E-04  2.109065E-04 -3.816985E-04 -7.483517E-05 -2.441393E-04 -2.108428E-04 -2.003729E-04  1.287796E-04 -2.307187E-04 -4.615641E-05  6.568236E+02  2.719689E+00
        37   2 -9.189932E-05 -2.979209E-04 -1.909334E-05  2.426940E-04 -1.184061E-03 -2.363988E-05 -5.213414E-05 -1.886680E-04 -1.999449E-05  1.459129E-04 -7.289826E-04 -1.444229E-05  6.568236E+02  2.719689E+00
        37   3 -5.603072E-04  8.080490E-05  2.274535E-04  1.003462E-04 -7.123859E-05  4.880789E-05 -4.641554E-04  4.545798E-05  1.658318E-04  7.475642E-05 -4.512981E-05  5.011543E-05  6.792291E+02  4.100525E+00
        37   4  1.192919E-05 -1.491591E-04 -7.026109E-05  1.068079E-03 -1.347980E-03 -4.584258E-05  1.345103E-05 -9.725800E-05 -5.169101E-05  6.523712E-04 -8.342275E-04 -2.758040E-05  6.568236E+02  2.719689E+00
        38   1  8.836066E-06 -3.988957E-05  1.516994E-04 -3.591867E-04  9.914904E-05 -1.726198E-04  3.453960E-06 -1.694327E-05  6.938129E-05 -1.615821E-04  4.546570E-05 -7.624691E-05  6.137920E+02  1.236059E+00
        38   2 -1.547848E-04 -7.098919E-05 -2.005809E-04 -4.733766E-04  1.006784E-03  1.163475E-04 -7.971174E-05 -3.538827E-05 -9.813807E-05 -2.485753E-04  5.251235E-04  5.624144E-05  6.361080E+02  1.860576E+00
        38   3 -1.698127E-04  8.011151E-05  1.708944E-04 -3.444310E-04 -2.583975E-04 -7.903527E-05 -7.671813E-05  3.716399E-05  7.769678E-05 -1.544423E-04 -1.130827E-04 -3.455978E-05  6.137920E+02  1.236059E+00
        38   4 -4.536335E-04 -4.532038E-05 -3.982642E-04 -5.281679E-04 -1.478710E-04  3.510448E-04 -2.334604E-04 -2.102536E-05 -2.010412E-04 -2.737249E-04 -7.267839E-05  1.779251E-04  6.361080E+02  1.860576E+00
        39   1  4.465170E-04 -3.506320E-04 -1.248191E-04  2.826942E-04 -6.724284E-04  8.331659E-05  3.058957E-04 -2.458398E-04 -8.739000E-05  1.799832E-04 -4.236665E-04  5.934698E-05  6.637473E+02  3.087616E+00
        39   2  4.970561E-04 -2.045969E-04 -1.796000E-04  1.253778E-03 -8.880832E-04  2.229116E-04  3.491371E-04 -1.495708E-04 -1.249564E-04  8.237895E-04 -5.645549E-04  1.562575E-04  6.637473E+02  3.087616E+00
        39   3  1.642030E-04  2.870531E-04 -4.139607E-05  2.201646E-04 -9.474874E-04  1.894912E-04  1.629815E-04  2.418272E-04 -6.145187E-05  1.623231E-04 -8.913915E-04  1.868634E-04  6.861527E+02  4.655254E+00
        39   4 -4.864010E-04  3.979197E-04  2.381408E-04  1.389316E-04 -6.622632E-04  1.404245E-04 -4.480191E-04  3.458757E-04  1.932371E-04  1.102794E-04 -6.410638E-04  1.420623E-04  6.861527E+02  4.655254E+00
        40   1 -4.870386E-04  5.156303E-04  5.124921E-04  4.683133E-04 -5.783704E-04 -2.063026E-05 -4.830055E-04  5.251770E-04  5.642869E-04  4.991706E-04 -6.484623E-04 -1.495663E-05  6.930764E+02  5.285028E+00
        40   2 -1.953101E-04  6.463117E-04  2.455204E-04  6.407745E-04 -6.987472E-04 -1.271797E-04 -1.950801E-04  6.493807E-04  2.947616E-04  6.796688E-04 -7.623663E-04 -1.187298E-04  6.930764E+02  5.285028E+00
        40   3 -1.955308E-04  3.255224E-04  6.192187E-04  8.382195E-04 -8.157872E-04 -1.514223E-04 -2.073144E-04  3.463281E-04  6.682376E-04  8.466968E-04 -8.902547E-04 -1.392515E-04  6.930764E+02  5.285028E+00
        40   4  3.194999E-04 -1.405741E-04 -1.514336E-04  1.113280E-03 -9.554526E-04  1.743434E-04  2.269623E-04 -1.150865E-04 -1.330657E-04  7.870866E-04 -6.798631E-04  1.373845E-04  6.706709E+02  3.505316E+00
        41   1  4.909724E-04 -2.150693E-04 -1.156559E-04  1.184190E-03 -1.235146E-03 -1.326314E-05  3.106359E-04 -1.354186E-04 -8.142723E-05  7.078437E-04 -7.715182E-04 -5.567498E-06  6.568236E+02  2.719689E+00
        41   2  4.767745E-04 -2.041323E-04 -3.960388E-04  9.806587E-04 -2.971269E-04  9.555466E-05  2.946343E-04 -1.279246E-04 -2.566744E-04  5.824655E-04 -1.790883E-04  6.151629E-05  6.568236E+02  2.719689E+00
        41   3  9.116305E-05  1.237146E-04  7.450019E-06  1.276502E-03 -2.684087E-04  1.949778E-04  7.046985E-05  9.549934E-05 -2.803522E-05  1.048084E-03 -1.933468E-04  1.667676E-04  6.792291E+02  4.100525E+00
        41   4 -4.598996E-04 -2.852585E-04 -3.413339E-04  1.592608E-04 -2.137989E-04  8.467810E-05 -2.865464E-04 -1.779348E-04 -2.230888E-04  8.186951E-05 -1.323906E-04  5.405987E-05  6.568236E+02  2.719689E+00
        42   1  8.135888E-05  1.937863E-04  6.477608E-05 -6.305722E-04  4.566889E-04 -6.083266E-05  3.534833E-05  8.346794E-05  2.799990E-05 -2.724072E-04  1.977576E-04 -2.672652E-05  6.068960E+02  1.089319E+00
        42   2 -2.965407E-05  3.968007E-04  9.775679E-05 -4.011977E-04  5.277790E-04 -3.129639E-05 -1.284703E-05  1.709168E-04  4.184433E-05 -1.720415E-04  2.272461E-04 -1.400152E-05  6.068960E+02  1.089319E+00
        42   3 -2.897875E-04  3.863423E-04  2.778372E-04 -2.236000E-04  4.755300E-04 -6.424306E-05 -1.254425E-04  1.663331E-04  1.203402E-04 -9.505675E-05  2.056564E-04 -2.783196E-05  6.068960E+02  1.089319E+00
        42   4  5.693764E-04 -3.435646E-04 -2.332060E-04 -7.043790E-04  6.193241E-04  3.046621E-04  2.789537E-04 -1.641743E-04 -1.124827E-04 -3.510833E-04  3.113823E-04  1.469910E-04  6.292120E+02  1.639696E+00
        43   1 -5.665457E-06  1.155928E-04  4.296367E-04 -5.789374E-04  5.431206E-04 -3.904143E-05 -3.061522E-06  4.920448E-05  1.860701E-04 -2.489970E-04  2.335917E-04 -1.736976E-05  6.068960E+02  1.089319E+00
        43   2  5.755897E-04 -1.885395E-04 -3.902624E-04 -7.474713E-04  6.232587E-04  2.890356E-04  2.817418E-04 -8.992010E-05 -1.876082E-04 -3.700071E-04  3.154991E-04  1.391409E-04  6.292120E+02  1.639696E+00
        43   3  8.701710E-05  7.010564E-05  1.907068E-04 -5.023229E-04  6.305186E-04 -7.240496E-05  3.765637E-05  3.006742E-05  8.266010E-05 -2.163033E-04  2.735262E-04 -3.159014E-05  6.068960E+02  1.089319E+00
        43   4 -2.841317E-04  2.340604E-04  4.236197E-04 -4.262509E-04  3.184595E-04 -8.458171E-05 -1.231355E-04  1.007340E-04  1.833725E-04 -1.832446E-04  1.371332E-04 -3.652888E-05  6.068960E+02  1.089319E+00
        44   1  4.499565E-04 -1.859234E-04 -4.054753E-04 -6.486579E-04  1.515557E-04  8.746457E-05  2.398976E-04 -9.780266E-05 -2.180271E-04 -3.626218E-04  8.768296E-05  4.764678E-05  6.430040E+02  2.111210E+00
        44   2  8.292679E-05  4.965912E-05 -1.363942E-04 -8.120419E-04  1.142797E-04  1.739025E-04  3.767600E-05  2.348770E-05 -5.985691E-05 -3.758026E-04  5.593559E-05  7.938608E-05  6.206880E+02  1.402565E+00
        44   3 -4.375854E-04 -2.690912E-04 -3.494218E-04  2.046537E-05  2.353667E-04  7.598606E-05 -2.391495E-04 -1.430689E-04 -1.876111E-04  1.677046E-06  1.299264E-04  4.087649E-05  6.430040E+02  2.111210E+00
        44   4  4.920806E-04 -1.974569E-04 -1.169869E-04 -6.530262E-04  7.145419E-04 -2.407978E-05  2.628711E-04 -1.046026E-04 -5.935992E-05 -3.657801E-04  3.968331E-04 -1.306388E-05  6.430040E+02  2.111210E+00
        45   1  3.895725E-04 -3.577706E-04 -1.249901E-04 -1.323522E-04  2.641790E-04  3.774669E-05  2.026716E-04 -1.791979E-04 -6.413620E-05 -7.035873E-05  1.496575E-04  1.820136E-05  6.361080E+02  1.860576E+00
        45   2 -3.520113E-04  1.599046E-04  9.345528E-05 -8.058256E-05  5.953021E-04  1.147554E-04 -1.582006E-04  7.220030E-05  4.366329E-05 -3.722437E-05  2.674035E-04  5.048627E-05  6.137920E+02  1.236059E+00
        45   3  1.494496E-04  1.168150E-04 -8.880925E-05 -7.717320E-05  6.097941E-04  1.093542E-04  6.676016E-05  5.303551E-05 -3.872585E-05 -3.561987E-05  2.733778E-04  4.826573E-05  6.137920E+02  1.236059E+00
        45   4  4.459943E-04 -2.044820E-04 -1.190187E-04 -7.940351E-04  3.352237E-04  9.691892E-05  2.318081E-04 -1.003638E-04 -6.143249E-05 -4.106501E-04  1.862567E-04  4.846915E-05  6.361080E+02  1.860576E+00
        46   1 -3.456509E-04 -9.433155E-05  2.896557E-05 -8.222321E-05  1.084820E-04  5.205033E-05 -1.599270E-04 -4.095357E-05  1.587112E-05 -3.950914E-05  5.377611E-05  2.328483E-05  6.206880E+02  1.402565E+00
        46   2 -1.042669E-04 -3.043600E-04 -3.849826E-05 -1.328091E-04  7.609992E-04 -2.616188E-05 -5.770844E-05 -1.616974E-04 -1.768552E-05 -7.449858E-05  4.255791E-04 -1.563697E-05  6.430040E+02  2.111210E+00
        46   3 -3.167519E-04 -3.420572E-04 -3.349168E-04 -1.644396E-04  3.151710E-04 -7.871625E-05 -1.748912E-04 -1.817533E-04 -1.809829E-04 -8.996616E-05  1.791630E-04 -4.434493E-05  6.430040E+02  2.111210E+00
        46   4 -1.966188E-05 -1.519490E-04 -9.102526E-05 -7.095535E-04  8.618138E-04 -4.865841E-05 -1.355304E-05 -7.896064E-05 -4.638008E-05 -3.880200E-04  4.820249E-04 -2.750472E-05  6.430040E+02  2.111210E+00
        47   1  1.006800E-03 -2.754093E-04 -2.874265E-04  7.280980E-04 -5.083114E-04  2.212949E-04  7.367094E-04 -2.088154E-04 -2.285735E-04  4.921919E-04 -3.385304E-04  1.534790E-04  6.706709E+02  3.505316E+00
        47   2 -4.475583E-05  1.153545E-04  5.139988E-04  1.047466E-03 -8.652168E-04 -3.002581E-05 -5.705183E-05  1.169784E-04  5.606609E-04  1.071828E-03 -9.358033E-04 -9.847645E-06  6.930764E+02  5.285028E+00
        47   3  2.648992E-04  9.947449E-05  7.801139E-05  7.676523E-04 -6.631997E-04  8.218619E-06  2.805000E-04  9.744053E-05  9.019143E-05  7.822313E-04 -7.326309E-04  7.555651E-06  6.930764E+02  5.285028E+00
        47   4 -1.386277E-04  5.551613E-04  8.856924E-05  8.256180E-04 -8.942675E-04 -7.308594E-05 -1.240848E-04  5.610217E-04  1.047424E-04  8.435503E-04 -9.697247E-04 -4.800307E-05  6.930764E+02  5.285028E+00
        48   1 -5.680661E-04  5.597445E-06 -3.280524E-04  6.712242E-04  1.969448E-04  4.173862E-04 -3.834487E-04 -3.586477E-07 -2.405735E-04  4.451911E-04  1.375724E-04  2.841792E-04  6.637473E+02  3.087616E+00
        48   2 -3.249707E-04  2.239172E-04  4.280698E-04  2.277964E-04  1.586250E-04 -1.514900E-04 -2.872781E-04  1.758758E-04  3.862546E-04  2.012488E-04  1.591480E-04 -1.521190E-04  6.861527E+02  4.655254E+00
        48   3  5.559545E-05  2.614493E-05  3.598190E-04  6.665269E-04 -1.919726E-04 -2.336339E-04  4.101186E-05  6.784298E-06  3.207107E-04  5.748626E-04 -1.649588E-04 -2.245756E-04  6.861527E+02  4.655254E+00
        48   4 -1.649020E-04 -1.206577E-04 -8.400475E-05  9.538415E-04 -1.308073E-03  1.489082E-04 -1.122401E-04 -8.168359E-05 -7.214514E-05  6.197730E-04 -8.746265E-04  1.144921E-04  6.637473E+02  3.087616E+00

 volume (element, volume) for set EALL and time  0.7000000E+01

        37  2.087500E+07
        38  2.079167E+07
        39  2.087500E+07
        40  2.087500E+07
        41  2.087500E+07
        42  2.079167E+07
        43  2.079167E+07
        44  2.079167E+07
        45  2.079167E+07
        46  2.079167E+07
        47  2.087500E+07
        48  2.087500E+07

 displacements (vx,vy,vz) for set NALL and time  0.8000000E+01

         1 -5.634772E+00  4.286214E+00 -5.776839E+00
         2 -2.587055E+00  4.157090E+00  0.000000E+00
         3 -2.548154E+00  0.000000E+00 -5.657616E+00
         4  0.000000E+00  0.000000E+00  0.000000E+00
         5 -3.896410E+00 -9.997855E+00  8.148522E+00
         6 -4.575623E-02 -1.005941E+01  0.000000E+00
         7  5.774945E-02  0.000000E+00  8.228653E+00
         8  4.456385E+00  0.000000E+00  0.000000E+00
         9 -4.880981E+00 -9.272886E-01  0.000000E+00
        10 -1.478157E+00  0.000000E+00  0.000000E+00
        11 -8.112617E+00 -8.451390E-01 -8.102604E-01
        12 -4.781096E+00  0.000000E+00 -8.065790E-01
        13  3.272894E+00 -4.974049E+00  0.000000E+00
        14 -3.719680E+00 -5.180795E+00  0.000000E+00
        15 -4.277700E+00  1.889031E+00  0.000000E+00
        16 -7.027438E-01  2.108044E+00  0.000000E+00
        17  2.809113E-01  0.000000E+00  0.000000E+00
        18 -1.363332E+00  0.000000E+00  0.000000E+00
        19 -6.628805E-01 -4.869272E+00  8.166285E+00
        20 -7.528415E+00 -5.285057E+00  3.541015E+00
        21 -7.233983E+00  1.744353E+00 -3.333888E+00
        22 -3.414631E+00  2.196356E+00 -5.712535E+00
        23 -3.687530E+00  0.000000E+00  3.462075E+00
        24 -4.163714E+00  0.000000E+00 -3.456544E+00
        25 -3.497357E+00  4.213803E+00 -2.949011E+00
        26 -7.109746E-01 -1.001790E+01  3.953630E+00
        27 -7.330983E-01  0.000000E+00 -2.873030E+00
        28  3.386195E+00  0.000000E+00  4.038320E+00
        29 -6.892138E-01 -2.586715E+00  0.000000E+00
        30 -2.315304E+00 -4.841716E-01  0.000000E+00
        31 -2.153784E+00  9.350068E-01  0.000000E+00
        32 -4.526676E+00 -2.642703E+00  3.515729E+00
        33 -4.958280E+00  8.949528E-01 -3.426729E+00
        34 -5.603273E+00 -4.602173E-01 -8.122785E-01
        35 -4.514169E+00 -5.235293E+00  1.756531E+00
        36 -5.053448E+00  1.841637E+00 -1.697483E+00
        37 -5.676909E+00 -9.276475E-01 -3.360287E-01
        38 -7.075186E-01  0.000000E+00  1.693072E+00
        39 -2.100109E+00  0.000000E+00 -1.742920E+00
        40 -2.316060E+00  0.000000E+00 -3.326671E-01
        41 -1.484439E+00  2.191331E+00 -2.946845E+00
        42  2.434458E+00 -4.897603E+00  3.976507E+00
        43 -3.156617E+00 -4.800339E-01 -3.639735E-01
        44 -1.598048E+00 -2.583368E+00  1.720297E+00
        45 -2.895686E+00  9.167448E-01 -1.709017E+00

 stresses (elem, integ.pnt.,sxx,syy,szz,sxy,sxz,syz) for set EALL and time  0.8000000E+01

        37   1 -7.913653E-01 -6.142464E-01 -3.986863E-01  7.478918E-02 -1.461054E-01 -2.659377E-02
        37   2 -2.956183E-01 -3.822449E-01  7.599885E-02  9.856989E-02 -3.839498E-01 -9.527617E-03
        37   3 -4.069139E-01  3.255725E-01  4.512572E-01  4.095586E-02 -4.869261E-02 -1.511864E-02
        37   4 -1.461356E-01 -1.153755E-01  6.063266E-02  3.754990E-01 -4.128186E-01 -2.182169E-02
        38   1  8.337270E-02 -1.415525E-01  2.764865E-01 -1.957648E-01  3.423611E-02 -1.399708E-01
        38   2 -4.728054E-01 -3.760105E-01 -7.638495E-01 -1.683633E-01  3.539323E-01  9.643380E-02
        38   3 -3.035312E-01  1.034603E-01  3.548677E-01 -1.943468E-01 -2.130656E-01 -7.378407E-02
        38   4 -1.138297E+00 -5.531936E-01 -1.188523E+00 -2.215352E-01 -1.120690E-01  1.870171E-01
        39   1  3.843741E-01 -2.064804E-01 -5.421390E-02  1.194442E-01 -2.992811E-01  7.060927E-03
        39   2  2.806658E-01  5.912708E-03 -8.445692E-02  4.167239E-01 -3.734700E-01  3.129357E-02
        39   3  1.523159E-01  5.179700E-01  2.710932E-01  1.181846E-01 -1.405288E-01  9.743307E-03
        39   4 -2.556352E-01  5.648304E-01  4.753607E-01  5.971370E-02 -6.420227E-02  7.665165E-04
        40   1 -4.269708E-01  4.142203E-01  1.483449E-01  5.707059E-02 -2.317423E-02 -1.327220E-02
        40   2 -1.072434E-01  6.130241E-01 -1.811494E-02  8.071468E-02 -5.837461E-02 -4.131279E-02
        40   3 -3.440952E-02  2.321160E-01  3.041467E-01  1.722385E-01 -6.529663E-02 -5.182329E-02
        40   4  5.135032E-01  1.544839E-01  2.801022E-01  3.654895E-01 -2.956803E-01  9.795245E-03
        41   1  5.415049E-01 -1.619751E-01  1.334617E-01  5.081844E-01 -3.324606E-01 -2.073519E-02
        41   2  6.576127E-01 -2.056359E-01 -2.285284E-01  4.498657E-01 -1.181311E-01  1.795477E-02
        41   3  2.657776E-01  3.153442E-01  4.697054E-01  2.898118E-01 -1.266589E-01  2.578348E-02
        41   4 -7.538900E-01 -5.768198E-01 -3.967398E-01  1.362784E-01 -6.939004E-02  1.910754E-02
        42   1  3.930044E-01  7.816597E-01  3.625535E-01 -4.367203E-01  2.992490E-01 -2.534078E-02
        42   2  2.227064E-01  1.486938E+00  5.931356E-01 -3.212106E-01  3.820588E-01 -9.544409E-03
        42   3 -5.309989E-01  1.399928E+00  9.148648E-01 -2.168616E-01  3.165815E-01 -4.370437E-02
        42   4  9.570853E-01 -9.169563E-01 -5.800588E-01 -2.506328E-01  1.735347E-01  1.734978E-01
        43   1  4.222689E-01  7.755148E-01  1.402948E+00 -4.451278E-01  3.960597E-01 -1.004480E-02
        43   2  9.896285E-01 -5.649608E-01 -9.282054E-01 -3.123671E-01  1.363914E-01  1.689562E-01
        43   3  4.300925E-01  4.343086E-01  6.633112E-01 -3.805022E-01  3.880251E-01 -3.720093E-02
        43   4 -4.976199E-01  9.428010E-01  1.298482E+00 -3.209604E-01  2.450407E-01 -5.990689E-02
        44   1  8.285835E-01 -4.719105E-01 -7.583458E-01 -1.756894E-01  1.393910E-02  3.354180E-02
        44   2  2.101773E-01  5.793949E-02 -5.451481E-01 -4.829772E-01  5.913625E-05  1.129576E-01
        44   3 -1.007104E+00 -9.341036E-01 -9.897094E-01  8.268556E-02  6.998205E-02  3.506326E-02
        44   4  9.767505E-01 -3.726475E-01 -3.036637E-01 -1.743701E-01  2.239162E-01 -1.025596E-02
        45   1  4.193253E-01 -9.445069E-01 -3.063811E-01 -3.464859E-02 -3.842859E-02  3.270718E-02
        45   2 -8.529086E-01  2.907355E-01 -2.551281E-02 -1.325826E-02  3.267046E-01  8.879911E-02
        45   3  4.045100E-01  3.256424E-01 -2.384272E-01 -1.522331E-02  3.444715E-01  7.769538E-02
        45   4  5.969588E-01 -6.004998E-01 -1.908020E-01 -3.382318E-01 -9.729228E-03  6.040918E-02
        46   1 -1.065381E+00 -6.555965E-01 -3.341245E-01 -1.529216E-02 -1.144145E-02  4.820299E-02
        46   2 -3.111648E-01 -8.176585E-01 -3.721836E-01 -3.550058E-02  2.017275E-01  4.281718E-03
        46   3 -7.262595E-01 -1.054875E+00 -8.804788E-01 -6.300407E-02  5.678530E-02 -1.498200E-02
        46   4 -2.834913E-02 -4.951699E-01 -3.696581E-01 -2.786997E-01  2.270376E-01 -9.813130E-03
        47   1  1.132682E+00 -9.382824E-04  1.391436E-01  3.168781E-01 -2.349788E-01  8.242429E-02
        47   2  9.852500E-02  1.568560E-01  2.248858E-01  1.949052E-01 -8.157088E-02 -3.599159E-02
        47   3  1.907140E-01  1.516125E-01  4.469019E-02  1.487337E-01 -4.159695E-02  3.172982E-03
        47   4 -1.630567E-01  5.004399E-01  2.744964E-02  1.539267E-01 -8.374995E-02 -5.446500E-02
        48   1 -6.840717E-01 -5.006384E-02 -1.272320E-01  2.058629E-01  3.146029E-02  1.001098E-01
        48   2 -2.272699E-01  5.036700E-01  4.721953E-01  5.900618E-02  3.350193E-03 -4.942027E-03
        48   3  2.551388E-01  2.935933E-01  4.756954E-01  1.994817E-01 -5.924923E-02 -2.858363E-02
        48   4 -1.801553E-01 -1.442131E-01  1.507631E-01  3.462797E-01 -3.652586E-01 -2.298723E-02

 internal state variables (elem, integ.pnt.,values) for set EALL and time  0.8000000E+01

        37   1 -4.031681E-04 -3.284329E-04 -2.832722E-04  2.130406E-04 -3.899075E-04 -7.560525E-05 -2.724802E-04 -2.311500E-04 -2.123841E-04  1.438871E-04 -2.596737E-04 -5.152171E-05  6.568236E+02  3.172971E+00
        37   2 -1.019804E-04 -2.888859E-04 -3.743206E-07  2.503101E-04 -1.181286E-03 -2.434333E-05 -6.211386E-05 -2.055357E-04 -1.434204E-05  1.652129E-04 -8.083208E-04 -1.630797E-05  6.568236E+02  3.172971E+00
        37   3 -5.141432E-04  1.043062E-04  2.415124E-04  1.039011E-04 -8.497499E-05  3.020767E-05 -5.035640E-04  6.285579E-05  1.945695E-04  8.640633E-05 -5.775571E-05  4.788545E-05  6.792291E+02  4.783945E+00
        37   4 -2.133788E-06 -1.381515E-04 -5.161366E-05  1.077636E-03 -1.334822E-03 -4.854212E-05  9.040613E-06 -1.032962E-04 -4.953814E-05  7.284147E-04 -9.208377E-04 -3.169403E-05  6.568236E+02  3.172971E+00
        38   1  1.117197E-05 -4.650794E-05  1.563217E-04 -3.795265E-04  1.006625E-04 -1.914460E-04  4.550370E-06 -2.050798E-05  7.569115E-05 -1.798358E-04  4.905804E-05 -8.821161E-05  6.137920E+02  1.442069E+00
        38   2 -1.600646E-04 -7.668879E-05 -2.247075E-04 -4.801613E-04  1.020709E-03  1.341485E-04 -8.880231E-05 -4.073917E-05 -1.161490E-04 -2.730019E-04  5.768924E-04  6.806077E-05  6.361080E+02  2.170672E+00
        38   3 -1.772571E-04  7.988372E-05  1.789092E-04 -3.653558E-04 -2.877897E-04 -8.962024E-05 -8.458207E-05  3.955496E-05  8.579524E-05 -1.724473E-04 -1.314199E-04 -4.073101E-05  6.137920E+02  1.442069E+00
        38   4 -4.690238E-04 -5.401057E-05 -4.245363E-04 -5.456869E-04 -1.673825E-04  3.743993E-04 -2.600724E-04 -2.626238E-05 -2.290048E-04 -3.045651E-04 -8.657811E-05  2.026443E-04  6.361080E+02  2.170672E+00
        39   1  4.202946E-04 -3.223651E-04 -1.139155E-04  2.939555E-04 -7.059394E-04  7.373377E-05  3.304492E-04 -2.622363E-04 -9.291082E-05  2.059987E-04 -4.880751E-04  6.216606E-05  6.637473E+02  3.602218E+00
        39   2  4.499080E-04 -1.755244E-04 -1.650949E-04  1.251837E-03 -9.226096E-04  2.029403E-04  3.697213E-04 -1.544115E-04 -1.333451E-04  9.196730E-04 -6.459629E-04  1.659296E-04  6.637473E+02  3.602218E+00
        39   3  1.319674E-04  2.855631E-04 -7.189915E-06  2.467361E-04 -8.244272E-04  1.533487E-04  1.693144E-04  2.745883E-04 -5.273794E-05  1.984071E-04 -9.528198E-04  1.945897E-04  6.861527E+02  5.431129E+00
        39   4 -4.348101E-04  3.822974E-04  2.462710E-04  1.460448E-04 -5.540992E-04  1.094122E-04 -4.841332E-04  3.859301E-04  2.241189E-04  1.292328E-04 -6.752437E-04  1.461163E-04  6.861527E+02  5.431129E+00
        40   1 -4.442790E-04  4.568771E-04  4.078523E-04  3.914975E-04 -4.495907E-04 -2.482126E-05 -5.300041E-04  5.694981E-04  5.896922E-04  5.299676E-04 -6.728234E-04 -1.936757E-05  6.930764E+02  6.165866E+00
        40   2 -1.768773E-04  5.821568E-04  1.693891E-04  5.377827E-04 -5.649319E-04 -1.245431E-04 -2.134089E-04  7.087603E-04  2.964486E-04  7.226588E-04 -8.005746E-04 -1.344415E-04  6.930764E+02  6.165866E+00
        40   3 -1.643586E-04  2.733926E-04  5.077165E-04  7.503530E-04 -6.577857E-04 -1.502161E-04 -2.205357E-04  3.682448E-04  7.049529E-04  9.218281E-04 -9.341482E-04 -1.587375E-04  6.930764E+02  6.165866E+00
        40   4  3.140999E-04 -1.125567E-04 -1.044528E-04  1.106022E-03 -9.400564E-04  1.490662E-04  2.528554E-04 -1.167096E-04 -1.284138E-04  8.817134E-04 -7.575821E-04  1.430058E-04  6.706709E+02  4.089536E+00
        41   1  4.734081E-04 -2.095926E-04 -9.276166E-05  1.232567E-03 -1.204225E-03 -1.996546E-05  3.374409E-04 -1.479836E-04 -8.077914E-05  8.061782E-04 -8.438763E-04 -8.955609E-06  6.568236E+02  3.172971E+00
        41   2  4.770963E-04 -2.005841E-04 -3.694455E-04  1.032393E-03 -3.053508E-04  8.999063E-05  3.271149E-04 -1.404630E-04 -2.736843E-04  6.682315E-04 -2.023085E-04  6.593674E-05  6.568236E+02  3.172971E+00
        41   3  9.138854E-05  1.243402E-04  5.554191E-05  1.187731E-03 -2.879681E-04  1.710774E-04  7.988676E-05  1.084029E-04 -8.592646E-06  1.144235E-03 -2.284122E-04  1.774374E-04  6.792291E+02  4.783945E+00
        41   4 -4.520207E-04 -2.826697E-04 -3.137148E-04  1.936200E-04 -2.132609E-04  8.103687E-05 -3.148376E-04 -1.963358E-04 -2.360048E-04  1.054333E-04 -1.467025E-04  5.845581E-05  6.568236E+02  3.172971E+00
        42   1  8.637050E-05  2.112227E-04  6.958881E-05 -6.809058E-04  4.900031E-04 -6.271136E-05  3.931849E-05  9.485384E-05  3.144947E-05 -3.072095E-04  2.218615E-04 -2.903947E-05  6.068960E+02  1.270873E+00
        42   2 -3.194439E-05  4.324045E-04  1.072734E-04 -4.410077E-04  5.729207E-04 -3.154179E-05 -1.445677E-05  1.941959E-04  4.784086E-05 -1.969159E-04  2.574324E-04 -1.493844E-05  6.068960E+02  1.270873E+00
        42   3 -3.114191E-04  4.214843E-04  2.972517E-04 -2.523922E-04  5.112288E-04 -6.918648E-05 -1.409102E-04  1.891659E-04  1.347051E-04 -1.112373E-04  2.311092E-04 -3.131288E-05  6.068960E+02  1.270873E+00
        42   4  5.934690E-04 -3.728710E-04 -2.497348E-04 -7.158655E-04  6.171322E-04  3.267235E-04  3.108720E-04 -1.887170E-04 -1.279386E-04 -3.840168E-04  3.359421E-04  1.673501E-04  6.292120E+02  1.912979E+00
        43   1 -1.944450E-06  1.297934E-04  4.600199E-04 -6.329431E-04  5.902804E-04 -3.912369E-05 -1.910024E-06  5.732929E-05  2.084102E-04 -2.836840E-04  2.649031E-04 -1.846001E-05  6.068960E+02  1.270873E+00
        43   2  6.011124E-04 -2.066278E-04 -4.186697E-04 -7.715747E-04  6.112382E-04  3.111375E-04  3.144260E-04 -1.041060E-04 -2.137403E-04 -4.092172E-04  3.367040E-04  1.588750E-04  6.292120E+02  1.912979E+00
        43   3  9.344764E-05  7.742164E-05  2.038461E-04 -5.480914E-04  6.722254E-04 -7.591443E-05  4.227819E-05  3.454015E-05  9.245463E-05 -2.460174E-04  3.053004E-04 -3.478986E-05  6.068960E+02  1.270873E+00
        43   4 -3.043449E-04  2.556018E-04  4.544450E-04 -4.649705E-04  3.480583E-04 -9.155525E-05 -1.379517E-04  1.146551E-04  2.057042E-04 -2.084176E-04  1.561757E-04 -4.127500E-05  6.068960E+02  1.270873E+00
        44   1  4.763109E-04 -2.010294E-04 -4.231386E-04 -6.392686E-04  1.404635E-04  8.941430E-05  2.731880E-04 -1.130914E-04 -2.458138E-04 -3.933852E-04  9.163517E-05  5.296417E-05  6.430040E+02  2.463078E+00
        44   2  9.180677E-05  5.188982E-05 -1.576438E-04 -8.700116E-04  1.071028E-04  1.887123E-04  4.372901E-05  2.601732E-05 -7.216972E-05 -4.247925E-04  5.738973E-05  9.072725E-05  6.206880E+02  1.636326E+00
        44   3 -4.436954E-04 -2.864102E-04 -3.652570E-04  4.554863E-05  2.340659E-04  7.959495E-05 -2.644273E-04 -1.635444E-04 -2.117796E-04  1.187570E-05  1.418548E-04  4.619235E-05  6.430040E+02  2.463078E+00
        44   4  5.186862E-04 -2.109015E-04 -1.336772E-04 -6.428505E-04  7.142375E-04 -2.496749E-05  2.984724E-04 -1.198950E-04 -7.159253E-05 -3.964877E-04  4.343712E-04 -1.465540E-05  6.430040E+02  2.463078E+00
        45   1  3.937830E-04 -3.871715E-04 -1.289784E-04 -1.306362E-04  2.292084E-04  4.395583E-05  2.222789E-04 -2.064090E-04 -7.137771E-05 -7.588585E-05  1.493184E-04  2.219235E-05  6.361080E+02  2.170672E+00
        45   2 -3.725079E-04  1.697875E-04  9.092146E-05 -7.902706E-05  6.294763E-04  1.265959E-04 -1.762883E-04  8.061860E-05  4.565259E-05 -3.916161E-05  2.978202E-04  5.820219E-05  6.137920E+02  1.442069E+00
        45   3  1.588283E-04  1.236408E-04 -9.973462E-05 -7.616911E-05  6.468354E-04  1.193138E-04  7.467813E-05  5.904638E-05 -4.531864E-05 -3.764641E-05  3.052527E-04  5.515168E-05  6.137920E+02  1.442069E+00
        45   4  4.521015E-04 -2.284313E-04 -1.210098E-04 -8.221410E-04  3.023498E-04  1.059404E-04  2.547190E-04 -1.184919E-04 -6.767676E-05 -4.576521E-04  1.899723E-04  5.622155E-05  6.361080E+02  2.170672E+00
        46   1 -3.691307E-04 -1.105040E-04  2.270096E-05 -8.054443E-05  9.903526E-05  5.967770E-05 -1.803558E-04 -4.999288E-05  1.466259E-05 -4.179170E-05  5.422206E-05  2.781268E-05  6.206880E+02  1.636326E+00
        46   2 -1.030209E-04 -3.239798E-04 -4.973358E-05 -1.307411E-04  7.486416E-04 -2.203771E-05 -6.274915E-05 -1.848678E-04 -2.379917E-05 -8.074427E-05  4.611824E-04 -1.551586E-05  6.430040E+02  2.463078E+00
        46   3 -3.152452E-04 -3.646355E-04 -3.459367E-04 -1.681559E-04  3.012637E-04 -7.547708E-05 -1.910328E-04 -2.079856E-04 -2.026363E-04 -9.998163E-05  1.907124E-04 -4.731467E-05  6.430040E+02  2.463078E+00
        46   4 -1.035738E-05 -1.672816E-04 -1.031410E-04 -7.278482E-04  8.473031E-04 -4.678689E-05 -1.120587E-05 -9.254170E-05 -5.558145E-05 -4.320579E-04  5.221572E-04 -2.938801E-05  6.430040E+02  2.463078E+00
        47   1  9.557278E-04 -2.491210E-04 -2.405927E-04  7.629042E-04 -5.396859E-04  2.250235E-04  8.053280E-04 -2.228929E-04 -2.358745E-04  5.691485E-04 -3.949522E-04  1.742589E-04  6.706709E+02  4.089536E+00
        47   2 -2.717402E-05  1.030489E-04  4.149668E-04  9.232496E-04 -7.063839E-04 -4.804924E-05 -5.586593E-05  1.272317E-04  5.885260E-04  1.159902E-03 -9.858813E-04 -2.107518E-05  6.930764E+02  6.165866E+00
        47   3  2.234023E-04  9.251796E-05  5.758999E-05  6.807433E-04 -5.263260E-04  8.400046E-06  2.987079E-04  1.077561E-04  9.224694E-05  8.484410E-04 -7.649173E-04  8.712825E-06  6.930764E+02  6.165866E+00
        47   4 -1.413524E-04  4.966346E-04  6.287507E-05  7.280656E-04 -7.293891E-04 -9.328338E-05 -1.434682E-04  6.106481E-04  1.060645E-04  9.131140E-04 -1.021197E-03 -6.578673E-05  6.930764E+02  6.165866E+00
        48   1 -5.464470E-04  1.184525E-05 -2.797436E-04  6.620372E-04  1.810834E-04  3.990135E-04 -4.190983E-04  2.420522E-06 -2.476985E-04  4.934616E-04  1.467880E-04  3.094377E-04  6.637473E+02  3.602218E+00
        48   2 -3.044939E-04  2.384992E-04  3.934632E-04  2.144419E-04  1.255364E-04 -1.203984E-04 -3.169381E-04  2.076557E-04  4.223065E-04  2.224347E-04  1.644957E-04 -1.574272E-04  6.861527E+02  5.431129E+00
        48   3  6.259356E-05  4.559931E-05  3.353179E-04  6.447701E-04 -1.866333E-04 -1.990606E-04  5.023769E-05  1.751311E-05  3.528284E-04  6.436988E-04 -1.851514E-04 -2.380509E-04  6.861527E+02  5.431129E+00
        48   4 -1.576102E-04 -1.163102E-04 -5.082155E-05  9.655754E-04 -1.274195E-03  1.154065E-04 -1.222069E-04 -8.934743E-05 -6.614852E-05  6.976831E-04 -9.626925E-04  1.133771E-04  6.637473E+02  3.602218E+00

 volume (element, volume) for set EALL and time  0.8000000E+01

        37  2.087500E+07
        38  2.079167E+07
        39  2.087500E+07
        40  2.087500E+07
        41  2.087500E+07
        42  2.079167E+07
        43  2.079167E+07
        44  2.079167E+07
        45  2.079167E+07
        46  2.079167E+07
        47  2.087500E+07
        48  2.087500E+07

 displacements (vx,vy,vz) for set NALL and time  0.9000000E+01

         1 -6.219398E+00  3.887219E+00 -5.350969E+00
         2 -2.876180E+00  3.757514E+00  0.000000E+00
         3 -2.834740E+00  0.000000E+00 -5.231991E+00
         4  0.000000E+00  0.000000E+00  0.000000E+00
         5 -2.430957E+00 -1.153784E+01  9.575453E+00
         6  1.654378E+00 -1.162119E+01  0.000000E+00
         7  1.806014E+00  0.000000E+00  9.679773E+00
         8  6.425029E+00  0.000000E+00  0.000000E+00
         9 -4.509988E+00 -1.920964E+00  0.000000E+00
        10 -8.043004E-01  0.000000E+00  0.000000E+00
        11 -8.027530E+00 -1.835115E+00  2.183048E-01
        12 -4.389300E+00  0.000000E+00  2.164012E-01
        13  5.171215E+00 -5.754597E+00  0.000000E+00
        14 -2.764900E+00 -6.492841E+00  0.000000E+00
        15 -4.309911E+00  1.209111E+00  0.000000E+00
        16 -7.764439E-01  1.908178E+00  0.000000E+00
        17  1.529136E+00  0.000000E+00  0.000000E+00
        18 -1.097469E+00  0.000000E+00  0.000000E+00
        19  9.960808E-01 -5.648262E+00  9.597439E+00
        20 -6.796444E+00 -6.582739E+00  4.821248E+00
        21 -7.547586E+00  1.058690E+00 -2.617656E+00
        22 -3.780686E+00  1.998713E+00 -5.286912E+00
        23 -2.687237E+00  0.000000E+00  4.752062E+00
        24 -4.184194E+00  0.000000E+00 -2.746983E+00
        25 -3.866044E+00  3.813777E+00 -2.736771E+00
        26  8.953266E-01 -1.156207E+01  4.683545E+00
        27 -8.042398E-01  0.000000E+00 -2.659713E+00
        28  5.286516E+00  0.000000E+00  4.768534E+00
        29  4.873897E-01 -3.236448E+00  0.000000E+00
        30 -1.713354E+00 -9.810857E-01  0.000000E+00
        31 -1.961264E+00  5.929115E-01  0.000000E+00
        32 -3.589142E+00 -3.288539E+00  4.796871E+00
        33 -5.053199E+00  5.521068E-01 -2.715165E+00
        34 -5.285928E+00 -9.553855E-01  2.133856E-01
        35 -3.616163E+00 -6.537901E+00  2.394665E+00
        36 -5.153350E+00  1.159508E+00 -1.338131E+00
        37 -5.373022E+00 -1.919703E+00  1.765515E-01
        38  4.800503E-01  0.000000E+00  2.342327E+00
        39 -1.903868E+00  0.000000E+00 -1.388429E+00
        40 -1.708421E+00  0.000000E+00  1.766917E-01
        41 -1.635349E+00  1.993838E+00 -2.735254E+00
        42  4.247627E+00 -5.678186E+00  4.708020E+00
        43 -2.626373E+00 -9.765104E-01  1.482730E-01
        44 -4.849979E-01 -3.235247E+00  2.362858E+00
        45 -2.773347E+00  5.742815E-01 -1.351320E+00

 stresses (elem, integ.pnt.,sxx,syy,szz,sxy,sxz,syz) for set EALL and time  0.9000000E+01

        37   1 -5.592311E-01 -3.724857E-01 -1.093952E-01  5.872186E-02 -1.217890E-01 -2.081110E-02
        37   2 -2.529148E-01 -1.978545E-01  1.951834E-01  8.481922E-02 -2.799031E-01 -8.143128E-03
        37   3 -9.353986E-02  4.529597E-01  5.211235E-01  3.872479E-02 -5.616265E-02 -3.108873E-02
        37   4 -1.731394E-01  6.691283E-03  1.801173E-01  2.924483E-01 -2.850561E-01 -2.061479E-02
        38   1  6.566348E-02 -1.673544E-01  1.542111E-01 -1.457466E-01  1.483661E-02 -1.336131E-01
        38   2 -3.957633E-01 -3.472486E-01 -7.562932E-01 -1.100870E-01  2.255406E-01  1.024233E-01
        38   3 -2.049247E-01  1.871837E-02  2.492452E-01 -1.481024E-01 -2.002322E-01 -7.404546E-02
        38   4 -8.951319E-01 -5.149495E-01 -1.043181E+00 -1.688336E-01 -1.159276E-01  1.666452E-01
        39   1  1.719900E-01  1.123058E-02  3.170794E-02  1.082499E-01 -2.802564E-01 -7.363837E-03
        39   2 -3.768133E-02  1.613786E-01  1.076408E-02  3.226766E-01 -3.382862E-01 -2.381781E-03
        39   3  2.227485E-02  4.604598E-01  3.562036E-01  1.261335E-01 -1.756077E-02 -2.362004E-02
        39   4 -1.455066E-02  4.839380E-01  4.835550E-01  5.864342E-02  3.563342E-02 -2.661304E-02
        40   1 -3.306394E-01  1.115866E-01 -2.572147E-01 -8.543056E-03  7.800412E-02 -1.538207E-02
        40   2 -1.180251E-01  2.721577E-01 -3.243972E-01 -8.623840E-03  5.098245E-02 -3.536355E-02
        40   3 -2.469843E-02 -4.049142E-02 -1.457817E-01  8.677583E-02  6.424778E-02 -4.575327E-02
        40   4  4.553527E-01  3.311070E-01  5.130909E-01  2.906341E-01 -2.242000E-01 -2.166684E-02
        41   1  2.987054E-01 -6.921745E-02  2.524130E-01  4.512981E-01 -1.982319E-01 -2.595075E-02
        41   2  5.241622E-01 -8.762706E-02  3.465307E-02  4.150039E-01 -1.006182E-01  4.289087E-03
        41   3  2.704817E-01  3.200603E-01  6.379706E-01  1.619377E-01 -1.272873E-01 -3.066373E-03
        41   4 -4.508025E-01 -3.553258E-01 -7.111451E-02  1.557888E-01 -5.073532E-02  8.346827E-03
        42   1  3.058318E-01  6.678405E-01  2.950658E-01 -3.587383E-01  2.385172E-01 -1.185533E-02
        42   2  1.999589E-01  1.284455E+00  5.195662E-01 -2.859017E-01  3.224552E-01 -2.387810E-03
        42   3 -4.126558E-01  1.210520E+00  7.267324E-01 -2.116684E-01  2.536304E-01 -3.597852E-02
        42   4  6.741309E-01 -8.611558E-01 -5.372067E-01 -1.468307E-01  6.641959E-02  1.517934E-01
        43   1  4.095253E-01  7.110476E-01  1.120739E+00 -3.896142E-01  3.334824E-01  6.859179E-04
        43   2  7.101524E-01 -5.601528E-01 -8.389300E-01 -2.203943E-01  1.355104E-02  1.495893E-01
        43   3  3.448592E-01  3.764921E-01  5.209836E-01 -3.310864E-01  2.932556E-01 -2.336712E-02
        43   4 -3.758162E-01  8.150954E-01  1.039846E+00 -2.761146E-01  2.162706E-01 -5.004935E-02
        44   1  7.361452E-01 -4.437949E-01 -6.425258E-01 -8.609367E-02 -1.714421E-02  2.537052E-02
        44   2  1.866693E-01  2.368050E-02 -5.718541E-01 -4.099426E-01 -3.414250E-02  9.896109E-02
        44   3 -7.484991E-01 -8.123328E-01 -8.288293E-01  1.092484E-01  3.999083E-02  3.032410E-02
        44   4  8.328779E-01 -3.608719E-01 -3.462430E-01 -8.217713E-02  1.356489E-01 -8.295418E-03
        45   1  1.952459E-01 -9.088480E-01 -2.752852E-01 -1.370693E-02 -1.197095E-01  3.494736E-02
        45   2 -6.599593E-01  2.181044E-01 -1.193594E-01  8.878124E-03  2.453264E-01  8.153966E-02
        45   3  2.999401E-01  2.444926E-01 -2.526606E-01  4.942398E-03  2.639867E-01  6.766067E-02
        45   4  3.331784E-01 -6.406705E-01 -1.669757E-01 -2.590528E-01 -9.875017E-02  5.788108E-02
        46   1 -9.162308E-01 -6.611315E-01 -3.749153E-01  4.361173E-03 -4.781635E-02  4.944993E-02
        46   2 -2.335480E-01 -7.432013E-01 -3.880955E-01 -1.678413E-02  9.436994E-02  1.188919E-02
        46   3 -4.868892E-01 -9.230730E-01 -7.046635E-01 -4.691201E-02  2.341036E-03 -2.113207E-03
        46   4  3.528078E-02 -4.832448E-01 -3.732708E-01 -2.113576E-01  1.054097E-01 -2.378368E-03
        47   1  7.037627E-01  1.478308E-01  3.495448E-01  3.004623E-01 -2.290542E-01  7.070244E-02
        47   2  7.888956E-02  4.089363E-02 -1.554630E-01  7.877165E-02  5.038372E-02 -4.633076E-02
        47   3 -2.043774E-03  6.922248E-02 -6.515254E-02  6.630146E-02  6.834257E-02  3.051940E-03
        47   4 -2.135452E-01  2.109885E-01 -1.085226E-01  6.214068E-02  5.207909E-02 -6.515762E-02
        48   1 -3.251682E-01  8.843343E-02  2.448270E-01  1.499626E-01  2.894744E-03  5.332231E-02
        48   2 -1.271060E-01  5.000088E-01  3.107902E-01  4.026513E-02 -2.785551E-02  2.183541E-02
        48   3  2.480366E-01  3.316268E-01  3.489006E-01  1.564603E-01 -4.833081E-02  3.415890E-03
        48   4 -5.051631E-02 -3.130161E-02  3.458586E-01  2.875252E-01 -2.396433E-01 -6.276115E-02

 internal state variables (elem, integ.pnt.,values) for set EALL and time  0.9000000E+01

        37   1 -3.905012E-04 -3.067073E-04 -2.407963E-04  2.073205E-04 -3.852991E-04 -7.358115E-05 -2.951435E-04 -2.453780E-04 -2.158443E-04  1.562240E-04 -2.844281E-04 -5.590209E-05  6.568236E+02  3.626253E+00
        37   2 -1.106670E-04 -2.653673E-04  2.402587E-05  2.501915E-04 -1.130537E-03 -2.429088E-05 -7.226026E-05 -2.164138E-04 -5.310194E-06  1.821587E-04 -8.696632E-04 -1.794081E-05  6.568236E+02  3.626253E+00
        37   3 -4.387129E-04  1.318860E-04  2.528270E-04  1.051062E-04 -1.001960E-04  5.675621E-06 -5.268806E-04  8.424286E-05  2.236799E-04  9.750732E-05 -7.236399E-05  4.144790E-05  6.792291E+02  5.467366E+00
        37   4 -2.021300E-05 -1.182071E-04 -2.525058E-05  1.046860E-03 -1.264468E-03 -5.022985E-05  2.184855E-06 -1.052700E-04 -4.325557E-05  7.901354E-04 -9.853238E-04 -3.561531E-05  6.568236E+02  3.626253E+00
        38   1  1.354498E-05 -5.277040E-05  1.547720E-04 -3.869961E-04  9.770116E-05 -2.072781E-04  5.731923E-06 -2.415132E-05  7.996686E-05 -1.941780E-04  5.111890E-05 -9.970106E-05  6.137920E+02  1.648079E+00
        38   2 -1.595577E-04 -8.052889E-05 -2.464054E-04 -4.671400E-04  9.908460E-04  1.517407E-04 -9.605207E-05 -4.568442E-05 -1.344047E-04 -2.906040E-04  6.135235E-04  8.063143E-05  6.361080E+02  2.480768E+00
        38   3 -1.778569E-04  7.563197E-05  1.808965E-04 -3.741766E-04 -3.118314E-04 -9.938437E-05 -9.026170E-05  4.051971E-05  9.201519E-05 -1.868288E-04 -1.487768E-04 -4.693928E-05  6.137920E+02  1.648079E+00
        38   4 -4.671063E-04 -6.308435E-05 -4.398111E-04 -5.438515E-04 -1.858038E-04  3.881912E-04 -2.811600E-04 -3.204120E-05 -2.542241E-04 -3.292421E-04 -1.009908E-04  2.250009E-04  6.361080E+02  2.480768E+00
        39   1  3.699883E-04 -2.730240E-04 -9.526408E-05  2.972408E-04 -7.229650E-04  5.852963E-05  3.439316E-04 -2.685352E-04 -9.467990E-05  2.298848E-04 -5.488710E-04  6.213428E-05  6.637473E+02  4.116821E+00
        39   2  3.716131E-04 -1.308715E-04 -1.396021E-04  1.201550E-03 -9.321156E-04  1.693971E-04  3.749679E-04 -1.511570E-04 -1.364870E-04  9.972392E-04 -7.206292E-04  1.689626E-04  6.637473E+02  4.116821E+00
        39   3  8.717338E-05  2.763127E-04  3.610399E-05  2.719714E-04 -6.453994E-04  1.027325E-04  1.669373E-04  3.041081E-04 -3.645709E-05  2.370499E-04 -9.778242E-04  1.923949E-04  6.861527E+02  6.207005E+00
        39   4 -3.572477E-04  3.521190E-04  2.497326E-04  1.504775E-04 -4.026957E-04  6.691893E-05 -5.039857E-04  4.184149E-04  2.540994E-04  1.479529E-04 -6.797623E-04  1.420282E-04  6.861527E+02  6.207005E+00
        40   1 -3.785816E-04  3.711777E-04  2.669406E-04  2.850409E-04 -2.781016E-04 -2.946247E-05 -5.621140E-04  5.952047E-04  5.866705E-04  5.386813E-04 -6.629780E-04 -2.451282E-05  6.930764E+02  7.046704E+00
        40   2 -1.486715E-04  4.861321E-04  7.015682E-05  3.939665E-04 -3.834219E-04 -1.179490E-04 -2.253659E-04  7.468279E-04  2.787795E-04  7.356036E-04 -8.019019E-04 -1.482097E-04  6.930764E+02  7.046704E+00
        40   3 -1.215005E-04  2.010659E-04  3.555146E-04  6.202442E-04 -4.430762E-04 -1.445315E-04 -2.249337E-04  3.751421E-04  7.105509E-04  9.683375E-04 -9.343366E-04 -1.762587E-04  6.930764E+02  7.046704E+00
        40   4  2.947414E-04 -7.184853E-05 -3.974752E-05  1.057163E-03 -8.867166E-04  1.111278E-04  2.729579E-04 -1.110465E-04 -1.128989E-04  9.598550E-04 -8.194977E-04  1.415919E-04  6.706709E+02  4.673755E+00
        41   1  4.311244E-04 -1.938982E-04 -5.922060E-05  1.246034E-03 -1.116134E-03 -2.793643E-05  3.538781E-04 -1.563840E-04 -7.462505E-05  8.948379E-04 -8.929142E-04 -1.326956E-05  6.568236E+02  3.626253E+00
        41   2  4.580476E-04 -1.878358E-04 -3.199507E-04  1.058911E-03 -3.039700E-04  7.907262E-05  3.524271E-04 -1.493456E-04 -2.803882E-04  7.481486E-04 -2.225217E-04  6.799215E-05  6.568236E+02  3.626253E+00
        41   3  8.845048E-05  1.216421E-04  1.162468E-04  1.036837E-03 -3.031827E-04  1.341526E-04  8.809793E-05  1.200794E-04  2.067072E-05  1.207173E-03 -2.637916E-04  1.806023E-04  6.792291E+02  5.467366E+00
        41   4 -4.232787E-04 -2.678731E-04 -2.650599E-04  2.309212E-04 -2.041684E-04  7.305319E-05 -3.348496E-04 -2.100296E-04 -2.392377E-04  1.324214E-04 -1.578025E-04  6.099269E-05  6.568236E+02  3.626253E+00
        42   1  8.842329E-05  2.234674E-04  7.233656E-05 -7.120561E-04  5.087624E-04 -6.177583E-05  4.238680E-05  1.048922E-04  3.430536E-05 -3.366499E-04  2.417645E-04 -3.041611E-05  6.068960E+02  1.452426E+00
        42   2 -3.325717E-05  4.572699E-04  1.142562E-04 -4.708787E-04  6.028449E-04 -3.035644E-05 -1.578580E-05  2.146753E-04  5.320713E-05 -2.193854E-04  2.835068E-04 -1.538006E-05  6.068960E+02  1.452426E+00
        42   3 -3.238405E-04  4.463319E-04  3.072967E-04 -2.780399E-04  5.317660E-04 -7.223105E-05 -1.537345E-04  2.093422E-04  1.463105E-04 -1.270974E-04  2.522130E-04 -3.426198E-05  6.068960E+02  1.452426E+00
        42   4  5.959133E-04 -3.930878E-04 -2.594353E-04 -6.958726E-04  5.839041E-04  3.400072E-04  3.360323E-04 -2.112075E-04 -1.416283E-04 -4.061595E-04  3.493099E-04  1.854721E-04  6.292120E+02  2.186262E+00
        43   1  3.262129E-06  1.421205E-04  4.760692E-04 -6.719539E-04  6.214996E-04 -3.707939E-05 -1.361515E-07  6.518284E-05  2.265472E-04 -3.145782E-04  2.919038E-04 -1.880638E-05  6.068960E+02  1.452426E+00
        43   2  6.050883E-04 -2.206217E-04 -4.354171E-04 -7.662797E-04  5.646662E-04  3.251536E-04  3.404469E-04 -1.175675E-04 -2.368640E-04 -4.388974E-04  3.450573E-04  1.766212E-04  6.292120E+02  2.186262E+00
        43   3  9.703968E-05  8.320422E-05  2.105912E-04 -5.806858E-04  6.920040E-04 -7.642130E-05  4.607894E-05  3.867377E-05  1.003629E-04 -2.723537E-04  3.305149E-04 -3.703151E-05  6.068960E+02  1.452426E+00
        43   4 -3.152278E-04  2.709687E-04  4.714913E-04 -4.919258E-04  3.697513E-04 -9.606003E-05 -1.500440E-04  1.269954E-04  2.240395E-04 -2.305156E-04  1.732490E-04 -4.534454E-05  6.068960E+02  1.452426E+00
        44   1  4.898377E-04 -2.121133E-04 -4.279828E-04 -5.982762E-04  1.194768E-04  8.807933E-05  3.032029E-04 -1.277137E-04 -2.698701E-04 -4.121629E-04  9.140527E-05  5.718995E-05  6.430040E+02  2.814946E+00
        44   2  9.906560E-05  5.246417E-05 -1.778381E-04 -9.041104E-04  9.195679E-05  1.985583E-04  4.951774E-05  2.803741E-05 -8.485197E-05 -4.673431E-04  5.576555E-05  1.008259E-04  6.206880E+02  1.870087E+00
        44   3 -4.316147E-04 -2.966679E-04 -3.701678E-04  7.681214E-05  2.218426E-04  8.096026E-05 -2.834127E-04 -1.823649E-04 -2.328103E-04  2.564313E-05  1.497432E-04  5.088259E-05  6.430040E+02  2.814946E+00
        44   4  5.304530E-04 -2.192782E-04 -1.500033E-04 -6.003061E-04  6.816714E-04 -2.500921E-05  3.300801E-04 -1.340531E-04 -8.457211E-05 -4.148899E-04  4.601628E-04 -1.598609E-05  6.430040E+02  2.814946E+00
        45   1  3.806365E-04 -4.082980E-04 -1.281288E-04 -1.222883E-04  1.719514E-04  5.015790E-05  2.358249E-04 -2.320026E-04 -7.706047E-05 -7.894262E-05  1.393218E-04  2.646910E-05  6.361080E+02  2.480768E+00
        45   2 -3.806284E-04  1.746302E-04  8.301271E-05 -7.263633E-05  6.425328E-04  1.358062E-04 -1.906435E-04  8.756420E-05  4.566809E-05 -3.934556E-05  3.218433E-04  6.535576E-05  6.137920E+02  1.648079E+00
        45   3  1.629811E-04  1.268588E-04 -1.090906E-04 -7.073099E-05  6.627112E-04  1.261861E-04  8.104232E-05  6.399543E-05 -5.169497E-05 -3.807817E-05  3.308056E-04  6.125607E-05  6.137920E+02  1.648079E+00
        45   4  4.386816E-04 -2.497169E-04 -1.177064E-04 -8.209801E-04  2.443794E-04  1.130377E-04  2.708745E-04 -1.367719E-04 -7.210498E-05 -4.954092E-04  1.831148E-04  6.369921E-05  6.361080E+02  2.480768E+00
        46   1 -3.817869E-04 -1.262723E-04  1.360204E-05 -7.406551E-05  8.130373E-05  6.690664E-05 -1.977666E-04 -5.945487E-05  1.222928E-05 -4.231259E-05  5.139823E-05  3.246616E-05  6.206880E+02  1.870087E+00
        46   2 -9.641397E-05 -3.356458E-04 -6.256690E-05 -1.221100E-04  6.985694E-04 -1.565411E-05 -6.577495E-05 -2.061799E-04 -3.108583E-05 -8.449466E-05  4.824215E-04 -1.435592E-05  6.430040E+02  2.814946E+00
        46   3 -2.984865E-04 -3.785718E-04 -3.453296E-04 -1.654724E-04  2.692720E-04 -6.791223E-05 -2.015494E-04 -2.322653E-04 -2.206428E-04 -1.078659E-04  1.949536E-04 -4.854091E-05  6.430040E+02  2.814946E+00
        46   4  2.687848E-06 -1.802641E-04 -1.147887E-04 -7.190528E-04  7.901049E-04 -4.241213E-05 -7.008307E-06 -1.060761E-04 -6.525105E-05 -4.672097E-04  5.460037E-04 -3.026251E-05  6.430040E+02  2.814946E+00
        47   1  8.548738E-04 -2.058259E-04 -1.713825E-04  7.807055E-04 -5.608188E-04  2.212210E-04  8.505117E-04 -2.281911E-04 -2.305530E-04  6.426712E-04 -4.502166E-04  1.924957E-04  6.706709E+02  4.673755E+00
        47   2 -4.970058E-06  8.492598E-05  2.806872E-04  7.431121E-04 -4.891985E-04 -6.899242E-05 -5.049734E-05  1.335164E-04  5.891169E-04  1.209045E-03 -9.914814E-04 -3.585723E-05  6.930764E+02  7.046704E+00
        47   3  1.657406E-04  8.126516E-05  3.073983E-05  5.538198E-04 -3.422420E-04  8.424388E-06  3.049246E-04  1.154219E-04  8.901678E-05  8.870533E-04 -7.601148E-04  9.830591E-06  6.930764E+02  7.046704E+00
        47   4 -1.408543E-04  4.099946E-04  2.933157E-05  5.861216E-04 -5.048936E-04 -1.160406E-04 -1.619115E-04  6.412194E-04  1.008326E-04  9.519118E-04 -1.026884E-03 -8.726654E-05  6.930764E+02  7.046704E+00
        48   1 -4.973125E-04  1.986833E-05 -2.061501E-04  6.256141E-04  1.535416E-04  3.600251E-04 -4.427420E-04  6.348254E-06 -2.415994E-04  5.307892E-04  1.503920E-04  3.255334E-04  6.637473E+02  4.116821E+00
        48   2 -2.696177E-04  2.501131E-04  3.395789E-04  1.911391E-04  7.884131E-05 -7.825846E-05 -3.385262E-04  2.399563E-04  4.467163E-04  2.381361E-04  1.606198E-04 -1.547553E-04  6.861527E+02  6.207005E+00
        48   3  6.883359E-05  6.908297E-05  2.959816E-04  5.976924E-04 -1.748266E-04 -1.506315E-04  5.997686E-05  3.209511E-05  3.762344E-04  6.999968E-04 -2.021669E-04 -2.420316E-04  6.861527E+02  6.207005E+00
        48   4 -1.423991E-04 -1.057050E-04 -5.601642E-06  9.445102E-04 -1.181777E-03  6.780425E-05 -1.286358E-04 -9.432471E-05 -5.307165E-05  7.641719E-04 -1.026149E-03  1.043817E-04  6.637473E+02  4.116821E+00

 volume (element, volume) for set EALL and time  0.9000000E+01

        37  2.087500E+07
        38  2.079167E+07
        39  2.087500E+07
        40  2.087500E+07
        41  2.087500E+07
        42  2.079167E+07
        43  2.079167E+07
        44  2.079167E+07
        45  2.079167E+07
        46  2.079167E+07
        47  2.087500E+07
        48  2.087500E+07

 displacements (vx,vy,vz) for set NALL and time  0.1000000E+02

         1 -6.738917E+00  3.482604E+00 -4.917625E+00
         2 -3.143747E+00  3.356140E+00  0.000000E+00
         3 -3.090832E+00  0.000000E+00 -4.802541E+00
         4  0.000000E+00  0.000000E+00  0.000000E+00
         5 -9.513636E-01 -1.287814E+01  1.074480E+01
         6  3.287419E+00 -1.298669E+01  0.000000E+00
         7  3.504735E+00  0.000000E+00  1.087690E+01
         8  8.243358E+00  0.000000E+00  0.000000E+00
         9 -4.121952E+00 -2.879881E+00  0.000000E+00
        10 -1.564589E-01  0.000000E+00  0.000000E+00
        11 -7.873715E+00 -2.791901E+00  1.204445E+00
        12 -3.968943E+00  0.000000E+00  1.195513E+00
        13  6.940925E+00 -6.438441E+00  0.000000E+00
        14 -1.813914E+00 -7.706498E+00  0.000000E+00
        15 -4.320749E+00  5.415390E-01  0.000000E+00
        16 -8.434294E-01  1.706503E+00  0.000000E+00
        17  2.710579E+00  0.000000E+00  0.000000E+00
        18 -8.395225E-01  0.000000E+00  0.000000E+00
        19  2.609424E+00 -6.333108E+00  1.077149E+01
        20 -5.985026E+00 -7.775376E+00  5.967234E+00
        21 -7.795528E+00  3.884736E-01 -1.920611E+00
        22 -4.105992E+00  1.797126E+00 -4.855824E+00
        23 -1.671580E+00  0.000000E+00  5.912495E+00
        24 -4.174418E+00  0.000000E+00 -2.054451E+00
        25 -4.199239E+00  3.410092E+00 -2.519163E+00
        26  2.438102E+00 -1.290695E+01  5.291839E+00
        27 -8.648172E-01  0.000000E+00 -2.443050E+00
        28  7.058010E+00  0.000000E+00  5.374861E+00
        29  1.612547E+00 -3.835597E+00  0.000000E+00
        30 -1.126026E+00 -1.460026E+00  0.000000E+00
        31 -1.767161E+00  2.567387E-01  0.000000E+00
        32 -2.622752E+00 -3.881041E+00  5.944765E+00
        33 -5.108468E+00  2.162247E-01 -2.021079E+00
        34 -4.929765E+00 -1.432871E+00  1.195989E+00
        35 -2.705848E+00 -7.738114E+00  2.965492E+00
        36 -5.219037E+00  4.906781E-01 -9.870758E-01
        37 -5.038455E+00 -2.876615E+00  6.654655E-01
        38  1.621711E+00  0.000000E+00  2.928730E+00
        39 -1.704424E+00  0.000000E+00 -1.042075E+00
        40 -1.111699E+00  0.000000E+00  6.615039E-01
        41 -1.769021E+00  1.792597E+00 -2.518532E+00
        42  5.942950E+00 -6.364200E+00  5.317637E+00
        43 -2.096961E+00 -1.455067E+00  6.375871E-01
        44  5.944431E-01 -3.836963E+00  2.940210E+00
        45 -2.638247E+00  2.382236E-01 -1.001990E+00

 stresses (elem, integ.pnt.,sxx,syy,szz,sxy,sxz,syz) for set EALL and time  0.1000000E+02

        37   1 -2.975201E-01 -9.907346E-02  2.148884E-01  4.058755E-02 -9.441148E-02 -1.415850E-02
        37   2 -2.032730E-01  1.035333E-02  3.273117E-01  6.913660E-02 -1.631344E-01 -6.510198E-03
        37   3  2.580455E-01  5.941049E-01  5.974420E-01  3.601121E-02 -6.431151E-02 -4.865034E-02
        37   4 -2.018197E-01  1.434692E-01  3.127229E-01  1.988486E-01 -1.419633E-01 -1.907188E-02
        38   1  4.590169E-02 -1.961915E-01  1.593363E-02 -8.926740E-02 -6.844095E-03 -1.258678E-01
        38   2 -3.083020E-01 -3.138992E-01 -7.449695E-01 -4.365587E-02  8.081941E-02  1.084810E-01
        38   3 -9.464639E-02 -7.705463E-02  1.283591E-01 -9.606557E-02 -1.853621E-01 -7.395767E-02
        38   4 -6.203569E-01 -4.707409E-01 -8.779773E-01 -1.086154E-01 -1.193547E-01  1.430385E-01
        39   1 -6.550778E-02  2.561133E-01  1.279433E-01  9.509739E-02 -2.577775E-01 -2.335444E-02
        39   2 -3.916377E-01  3.350404E-01  1.173272E-01  2.159323E-01 -2.973703E-01 -3.987638E-02
        39   3 -1.233520E-01  3.937740E-01  4.489746E-01  1.340047E-01  1.200110E-01 -6.084435E-02
        39   4  2.548856E-01  3.907620E-01  4.898615E-01  5.704439E-02  1.467846E-01 -5.704569E-02
        40   1 -2.203626E-01 -2.276943E-01 -7.083418E-01 -8.191926E-02  1.904209E-01 -1.766296E-02
        40   2 -1.288930E-01 -1.112810E-01 -6.645136E-01 -1.086467E-01  1.728123E-01 -2.847584E-02
        40   3 -1.412519E-02 -3.452868E-01 -6.475254E-01 -9.478677E-03  2.086547E-01 -3.862334E-02
        40   4  3.870060E-01  5.269825E-01  7.704052E-01  2.052097E-01 -1.430941E-01 -5.671797E-02
        41   1  2.578183E-02  3.517412E-02  3.837169E-01  3.857904E-01 -4.867882E-02 -3.152957E-02
        41   2  3.714218E-01  4.508814E-02  3.288318E-01  3.739210E-01 -8.072342E-02 -1.099974E-02
        41   3  2.739722E-01  3.238056E-01  8.236307E-01  1.777488E-02 -1.270924E-01 -3.548965E-02
        41   4 -1.104588E-01 -1.051058E-01  2.932552E-01  1.771149E-01 -2.962622E-02 -3.728663E-03
        42   1  2.078663E-01  5.382570E-01  2.192301E-01 -2.704751E-01  1.702848E-01  3.187166E-03
        42   2  1.743121E-01  1.053443E+00  4.364789E-01 -2.454513E-01  2.553575E-01  5.696231E-03
        42   3 -2.793491E-01  9.944868E-01  5.155421E-01 -2.048708E-01  1.828820E-01 -2.722302E-02
        42   4  3.563474E-01 -7.964682E-01 -4.882111E-01 -2.997098E-02 -5.329019E-02  1.270397E-01
        43   1  3.934879E-01  6.365736E-01  8.036887E-01 -3.261680E-01  2.630319E-01  1.269925E-02
        43   2  3.959040E-01 -5.528425E-01 -7.378821E-01 -1.162462E-01 -1.233662E-01  1.273794E-01
        43   3  2.487403E-01  3.104566E-01  3.612339E-01 -2.745809E-01  1.870453E-01 -7.891828E-03
        43   4 -2.389512E-01  6.695208E-01  7.491357E-01 -2.252261E-01  1.833930E-01 -3.885428E-02
        44   1  6.283519E-01 -4.100344E-01 -5.103900E-01  1.494814E-02 -5.187604E-02  1.612145E-02
        44   2  1.589308E-01 -1.584319E-02 -6.020089E-01 -3.265569E-01 -7.194872E-02  8.323541E-02
        44   3 -4.562220E-01 -6.719123E-01 -6.453206E-01  1.389521E-01  6.531847E-03  2.484454E-02
        44   4  6.674098E-01 -3.457672E-01 -3.915683E-01  2.212127E-02  3.529841E-02 -6.064374E-03
        45   1 -5.428289E-02 -8.651600E-01 -2.398901E-01  9.892751E-03 -2.102418E-01  3.715554E-02
        45   2 -4.428316E-01  1.344912E-01 -2.241032E-01  3.338863E-02  1.540482E-01  7.324820E-02
        45   3  1.832461E-01  1.510102E-01 -2.681188E-01  2.732839E-02  1.737063E-01  5.632834E-02
        45   4  3.844039E-02 -6.825577E-01 -1.402296E-01 -1.684413E-01 -1.979639E-01  5.466924E-02
        46   1 -7.472466E-01 -6.672130E-01 -4.215941E-01  2.620244E-02 -8.810997E-02  5.056436E-02
        46   2 -1.455796E-01 -6.558754E-01 -4.036289E-01  4.426534E-03 -2.667088E-02  2.020836E-02
        46   3 -2.169869E-01 -7.707546E-01 -5.055226E-01 -2.850271E-02 -5.872088E-02  1.213297E-02
        46   4  1.058544E-01 -4.671859E-01 -3.753098E-01 -1.338525E-01 -3.160147E-02  5.856188E-03
        47   1  2.199181E-01  3.135515E-01  5.823498E-01  2.802412E-01 -2.211045E-01  5.712370E-02
        47   2  5.591802E-02 -8.917290E-02 -5.794165E-01 -5.177506E-02  1.975890E-01 -5.758167E-02
        47   3 -2.175130E-01 -2.350696E-02 -1.873892E-01 -2.643463E-02  1.906447E-01  2.874419E-03
        47   4 -2.684000E-01 -1.145208E-01 -2.596940E-01 -4.108048E-02  2.034823E-01 -7.669835E-02
        48   1  7.778279E-02  2.441669E-01  6.603014E-01  8.691826E-02 -2.908588E-02  6.505126E-04
        48   2 -1.444021E-02  4.927750E-01  1.292867E-01  1.901676E-02 -6.293192E-02  5.153754E-02
        48   3  2.377803E-01  3.720927E-01  2.060207E-01  1.071740E-01 -3.595783E-02  3.905694E-02
        48   4  9.482426E-02  9.586489E-02  5.624620E-01  2.205742E-01 -9.831911E-02 -1.067231E-01

 internal state variables (elem, integ.pnt.,values) for set EALL and time  0.1000000E+02

        37   1 -3.626655E-04 -2.701374E-04 -1.800561E-04  1.941324E-04 -3.686649E-04 -6.883159E-05 -3.113163E-04 -2.526212E-04 -2.096419E-04  1.654006E-04 -3.044058E-04 -5.913341E-05  6.568236E+02  4.079534E+00
        37   2 -1.180528E-04 -2.276849E-04  5.404269E-05  2.427676E-04 -1.034100E-03 -2.349689E-05 -8.251335E-05 -2.204382E-04  7.462679E-06  1.963847E-04 -9.106015E-04 -1.929483E-05  6.568236E+02  4.079534E+00
        37   3 -3.360398E-04  1.636431E-04  2.619617E-04  1.042203E-04 -1.170089E-04 -2.442006E-05 -5.318961E-04  1.100749E-04  2.531016E-04  1.079194E-04 -8.914828E-05  3.033876E-05  6.792291E+02  6.150787E+00
        37   4 -4.222974E-05 -8.950972E-05  8.709014E-06  9.777367E-04 -1.139553E-03 -5.092445E-05 -7.359627E-06 -1.026410E-04 -3.236380E-05  8.355330E-04 -1.024782E-03 -3.928250E-05  6.568236E+02  4.079534E+00
        38   1  1.599352E-05 -5.871487E-05  1.467595E-04 -3.811311E-04  9.010719E-05 -2.200460E-04  7.013319E-06 -2.787571E-05  8.191545E-05 -2.040476E-04  5.145456E-05 -1.105982E-04  6.137920E+02  1.854088E+00
        38   2 -1.532905E-04 -8.255352E-05 -2.658663E-04 -4.339268E-04  9.169357E-04  1.691795E-04 -1.012018E-04 -5.015355E-05 -1.528615E-04 -3.003228E-04  6.328899E-04  9.396365E-05  6.361080E+02  2.790864E+00
        38   3 -1.713673E-04  6.715610E-05  1.765513E-04 -3.705229E-04 -3.304714E-04 -1.083151E-04 -9.345952E-05  3.986354E-05  9.606305E-05 -1.970829E-04 -1.649702E-04 -5.315483E-05  6.137920E+02  1.854088E+00
        38   4 -4.479260E-04 -7.263893E-05 -4.443518E-04 -5.224504E-04 -2.031298E-04  3.924942E-04 -2.959357E-04 -3.841466E-05 -2.762832E-04 -3.467809E-04 -1.158641E-04  2.445774E-04  6.361080E+02  2.790864E+00
        39   1  2.966634E-04 -2.032291E-04 -6.915048E-05  2.930559E-04 -7.249133E-04  3.795248E-05  3.448874E-04 -2.633458E-04 -9.220756E-05  2.512168E-04 -6.053130E-04  5.891180E-05  6.637473E+02  4.631424E+00
        39   2  2.635281E-04 -7.108420E-05 -1.035704E-04  1.105522E-03 -9.184285E-04  1.228644E-04  3.629866E-04 -1.387743E-04 -1.337042E-04  1.053742E-03 -7.873122E-04  1.645295E-04  6.637473E+02  4.631424E+00
        39   3  3.071558E-05  2.601564E-04  8.786807E-05  2.961200E-04 -4.147491E-04  3.875112E-05  1.547446E-04  3.298230E-04 -1.179763E-05  2.781949E-04 -9.616200E-04  1.790355E-04  6.861527E+02  6.982881E+00
        39   4 -2.558379E-04  3.087382E-04  2.490731E-04  1.525396E-04 -2.113762E-04  1.378438E-05 -5.053989E-04  4.421738E-04  2.828528E-04  1.662508E-04 -6.509100E-04  1.287962E-04  6.861527E+02  6.982881E+00
        40   1 -2.921152E-04  2.609701E-04  9.291648E-05  1.515114E-04 -6.758871E-05 -3.454079E-05 -5.771844E-04  5.997259E-04  5.517117E-04  5.224376E-04 -6.147788E-04 -3.044648E-05  6.930764E+02  7.927542E+00
        40   2 -1.115577E-04  3.611487E-04 -5.029498E-05  2.128663E-04 -1.583318E-04 -1.077953E-04 -2.300109E-04  7.605537E-04  2.394660E-04  7.145462E-04 -7.617166E-04 -1.596729E-04  6.930764E+02  7.927542E+00
        40   3 -6.802151E-05  1.102620E-04  1.661833E-04  4.517715E-04 -1.766024E-04 -1.348280E-04 -2.193962E-04  3.650496E-04  6.811029E-04  9.822172E-04 -8.853334E-04 -1.914096E-04  6.930764E+02  7.927542E+00
        40   4  2.622360E-04 -1.894671E-05  4.195228E-05  9.694202E-04 -7.979275E-04  6.110936E-05  2.863580E-04 -9.717640E-05 -8.524851E-05  1.018908E-03 -8.632409E-04  1.322566E-04  6.706709E+02  5.257974E+00
        41   1  3.648637E-04 -1.682614E-04 -1.524792E-05  1.226571E-03 -9.735076E-04 -3.713697E-05  3.585450E-04 -1.600286E-04 -6.232219E-05  9.721879E-04 -9.157297E-04 -1.858095E-05  6.568236E+02  4.079534E+00
        41   2  4.202305E-04 -1.661382E-04 -2.481046E-04  1.061674E-03 -2.935297E-04  6.294324E-05  3.694796E-04 -1.540409E-04 -2.754359E-04  8.210481E-04 -2.392783E-04  6.737206E-05  6.568236E+02  4.079534E+00
        41   3  8.255846E-05  1.159508E-04  1.892288E-04  8.281253E-04 -3.145443E-04  8.497909E-05  9.486104E-05  1.303172E-04  6.091516E-05  1.232210E-03 -2.992315E-04  1.752307E-04  6.792291E+02  6.150787E+00
        41   4 -3.744696E-04 -2.411837E-04 -1.958692E-04  2.715674E-04 -1.868399E-04  6.084464E-05 -3.454620E-04 -2.183046E-04 -2.315454E-04  1.631829E-04 -1.652282E-04  6.141943E-05  6.568236E+02  4.079534E+00
        42   1  8.740520E-05  2.303095E-04  7.296040E-05 -7.232560E-04  5.124640E-04 -5.790344E-05  4.443348E-05  1.133680E-04  3.649079E-05 -3.599374E-04  2.568945E-04 -3.073693E-05  6.068960E+02  1.633979E+00
        42   2 -3.352966E-05  4.709555E-04  1.186557E-04 -4.904433E-04  6.170849E-04 -2.765524E-05 -1.678554E-05  2.319083E-04  5.785689E-05 -2.390511E-04  3.048919E-04 -1.525761E-05  6.068960E+02  1.633979E+00
        42   3 -3.266918E-04  4.604720E-04  3.076484E-04 -3.004355E-04  5.366082E-04 -7.330114E-05 -1.635389E-04  2.264373E-04  1.547881E-04 -1.425138E-04  2.683685E-04 -3.660110E-05  6.068960E+02  1.633979E+00
        42   4  5.765728E-04 -4.043180E-04 -2.623711E-04 -6.438017E-04  5.191522E-04  3.445361E-04  3.534996E-04 -2.313106E-04 -1.532950E-04 -4.160091E-04  3.500413E-04  2.010058E-04  6.292120E+02  2.459545E+00
        43   1  1.000885E-05  1.525206E-04  4.772785E-04 -6.953930E-04  6.362669E-04 -3.279429E-05  2.319629E-06  7.269543E-05  2.399140E-04 -3.410697E-04  3.139811E-04 -1.831099E-05  6.068960E+02  1.633979E+00
        43   2  5.873787E-04 -2.305743E-04 -4.406381E-04 -7.310472E-04  4.829681E-04  3.310914E-04  3.588731E-04 -1.301560E-04 -2.565497E-04 -4.576516E-04  3.389395E-04  1.920511E-04  6.292120E+02  2.459545E+00
        43   3  9.767932E-05  8.738638E-05  2.107216E-04 -5.995811E-04  6.890492E-04 -7.379715E-05  4.894148E-05  4.240308E-05  1.061338E-04 -2.947697E-04  3.482911E-04 -3.818842E-05  6.068960E+02  1.633979E+00
        43   4 -3.164221E-04  2.799122E-04  4.742726E-04 -5.066937E-04  3.832603E-04 -9.799495E-05 -1.590328E-04  1.374998E-04  2.378333E-04 -2.490705E-04  1.880408E-04 -4.863491E-05  6.068960E+02  1.633979E+00
        44   1  4.907421E-04 -2.192809E-04 -4.202630E-04 -5.256158E-04  8.854746E-05  8.350119E-05  3.293410E-04 -1.414960E-04 -2.896133E-04 -4.172662E-04  8.645444E-05  6.016617E-05  6.430040E+02  3.166815E+00
        44   2  1.046877E-04  5.130189E-05 -1.972029E-04 -9.138334E-04  6.863277E-05  2.034404E-04  5.497991E-05  2.946153E-05 -9.794685E-05 -5.024397E-04  5.070995E-05  1.095081E-04  6.206880E+02  2.103848E+00
        44   3 -4.015540E-04 -2.999966E-04 -3.643810E-04  1.146453E-04  1.988734E-04  8.011182E-05 -2.952241E-04 -1.992065E-04 -2.502101E-04  4.344656E-05  1.530802E-04  5.483984E-05  6.430040E+02  3.166815E+00
        44   4  5.276112E-04 -2.227039E-04 -1.660288E-04 -5.251638E-04  6.166148E-04 -2.421799E-05  3.569961E-04 -1.468523E-04 -9.830263E-05 -4.191977E-04  4.724249E-04 -1.701612E-05  6.430040E+02  3.166815E+00
        45   1  3.502170E-04 -4.213418E-04 -1.225114E-04 -1.072047E-04  9.193985E-05  5.634114E-05  2.425341E-04 -2.556637E-04 -8.098514E-05 -7.918373E-05  1.184641E-04  3.102705E-05  6.361080E+02  2.790864E+00
        45   2 -3.759816E-04  1.741880E-04  6.950390E-05 -6.125003E-05  6.338881E-04  1.423591E-04 -2.007464E-04  9.279529E-05  4.346457E-05 -3.757052E-05  3.386154E-04  7.185624E-05  6.137920E+02  1.854088E+00
        45   3  1.618222E-04  1.262400E-04 -1.168784E-04 -6.070164E-05  6.568643E-04  1.299131E-04  8.566128E-05  6.769055E-05 -5.780685E-05 -3.672292E-05  3.491870E-04  6.646312E-05  6.137920E+02  1.854088E+00
        45   4  4.057958E-04 -2.684931E-04 -1.091638E-04 -7.901935E-04  1.608668E-04  1.182142E-04  2.793898E-04 -1.551357E-04 -7.449122E-05 -5.224331E-04  1.643582E-04  7.081403E-05  6.361080E+02  2.790864E+00
        46   1 -3.834254E-04 -1.418282E-04  1.418859E-06 -6.265208E-05  5.502323E-05  7.373949E-05 -2.117119E-04 -6.939352E-05  8.383293E-06 -4.085614E-05  4.492090E-05  3.723217E-05  6.206880E+02  2.103848E+00
        46   2 -8.447385E-05 -3.395189E-04 -7.704497E-05 -1.068530E-04  6.106957E-04 -7.053618E-06 -6.651349E-05 -2.252731E-04 -3.964671E-05 -8.538107E-05  4.872776E-04 -1.205356E-05  6.430040E+02  3.166815E+00
        46   3 -2.665610E-04 -3.840365E-04 -3.333453E-04 -1.563714E-04  2.191297E-04 -5.609447E-05 -2.056682E-04 -2.541990E-04 -2.344804E-04 -1.132754E-04  1.909094E-04 -4.782219E-05  6.430040E+02  3.166815E+00
        46   4  1.947529E-05 -1.909899E-04 -1.260457E-04 -6.829571E-04  6.901721E-04 -3.558014E-05 -7.627226E-07 -1.194741E-04 -7.539225E-05 -4.919717E-04  5.512980E-04 -3.001305E-05  6.430040E+02  3.166815E+00
        47   1  7.070557E-04 -1.463491E-04 -8.087726E-05  7.829672E-04 -5.727624E-04  2.103829E-04  8.689792E-04 -2.235366E-04 -2.110635E-04  7.118306E-04 -5.038287E-04  2.077192E-04  6.706709E+02  5.257974E+00
        47   2  2.146448E-05  6.149783E-05  1.142197E-04  5.120459E-04 -2.187392E-04 -9.269947E-05 -4.049428E-05  1.352716E-04  5.590181E-04  1.213892E-03 -9.469546E-04 -5.451606E-05  6.930764E+02  7.927542E+00
        47   3  9.330911E-05  6.610546E-05 -2.002101E-06  3.904070E-04 -1.149503E-04  8.307806E-06  2.975806E-04  1.200281E-04  7.986952E-05  8.942119E-04 -7.136102E-04  1.089475E-05  6.930764E+02  7.927542E+00
        47   4 -1.374905E-04  2.977873E-04 -1.141717E-05  4.037668E-04 -2.259206E-04 -1.412548E-04 -1.791336E-04  6.500542E-04  8.827118E-05  9.556934E-04 -9.809943E-04 -1.127386E-04  6.930764E+02  7.927542E+00
        48   1 -4.219387E-04  2.981060E-05 -1.079959E-04  5.634553E-04  1.147454E-04  3.012667E-04 -4.527392E-04  1.161543E-05 -2.205998E-04  5.556390E-04  1.476445E-04  3.311953E-04  6.637473E+02  4.631424E+00
        48   2 -2.216582E-04  2.591913E-04  2.681229E-04  1.586859E-04  1.935118E-05 -2.590657E-05 -3.508899E-04  2.726037E-04  4.579189E-04  2.475124E-04  1.462603E-04 -1.431502E-04  6.861527E+02  6.982881E+00
        48   3  7.432612E-05  9.637294E-05  2.432116E-04  5.275201E-04 -1.571715E-04 -8.937351E-05  7.014548E-05  5.091029E-05  3.897593E-04  7.416947E-04 -2.154985E-04 -2.353138E-04  6.861527E+02  6.982881E+00
        48   4 -1.196197E-04 -8.903133E-05  5.141252E-05  8.926727E-04 -1.033791E-03  6.587555E-06 -1.310485E-04 -9.620433E-05 -3.207812E-05  8.174737E-04 -1.061603E-03  8.660214E-05  6.637473E+02  4.631424E+00

 volume (element, volume) for set EALL and time  0.1000000E+02

        37  2.087500E+07
        38  2.079167E+07
        39  2.087500E+07
        40  2.087500E+07
        41  2.087500E+07
        42  2.079167E+07
        43  2.079167E+07
        44  2.079167E+07
        45  2.079167E+07
        46  2.079167E+07
        47  2.087500E+07
        48  2.087500E+07

 displacements (vx,vy,vz) for set NALL and time  0.1100000E+02

         1 -7.192215E+00  3.072139E+00 -4.476537E+00
         2 -3.389391E+00  2.952838E+00  0.000000E+00
         3 -3.315973E+00  0.000000E+00 -4.369093E+00
         4  0.000000E+00  0.000000E+00  0.000000E+00
         5  5.430899E-01 -1.401654E+01  1.165360E+01
         6  4.852945E+00 -1.415381E+01  0.000000E+00
         7  5.153719E+00  0.000000E+00  1.181716E+01
         8  9.909982E+00  0.000000E+00  0.000000E+00
         9 -3.716454E+00 -3.803769E+00  0.000000E+00
        10  4.650333E-01  0.000000E+00  0.000000E+00
        11 -7.649772E+00 -3.715243E+00  2.147833E+00
        12 -3.519411E+00  0.000000E+00  2.130413E+00
        13  8.580856E+00 -7.024524E+00  0.000000E+00
        14 -8.664795E-01 -8.820753E+00  0.000000E+00
        15 -4.309811E+00 -1.136715E-01  0.000000E+00
        16 -9.035789E-01  1.502926E+00  0.000000E+00
        17  3.824627E+00  0.000000E+00  0.000000E+00
        18 -5.896243E-01  0.000000E+00  0.000000E+00
        19  4.177079E+00 -6.922756E+00  1.168551E+01
        20 -5.092740E+00 -8.861922E+00  6.977609E+00
        21 -7.976599E+00 -2.662602E-01 -1.242805E+00
        22 -4.389888E+00  1.591443E+00 -4.419049E+00
        23 -6.400684E-01  0.000000E+00  6.942025E+00
        24 -4.133861E+00  0.000000E+00 -1.378969E+00
        25 -4.496331E+00  3.002566E+00 -2.296008E+00
        26  3.917040E+00 -1.405036E+01  5.777115E+00
        27 -9.146346E-01  0.000000E+00 -2.222910E+00
        28  8.699513E+00  0.000000E+00  5.855892E+00
        29  2.685862E+00 -4.383622E+00  0.000000E+00
        30 -5.534063E-01 -1.920848E+00  0.000000E+00
        31 -1.571416E+00 -7.351563E-02  0.000000E+00
        32 -1.626778E+00 -4.419656E+00  6.958049E+00
        33 -5.123381E+00 -1.126917E-01 -1.344500E+00
        34 -4.533962E+00 -1.892532E+00  2.135197E+00
        35 -1.782691E+00 -8.834902E+00  3.468293E+00
        36 -5.249856E+00 -1.648375E-01 -6.443178E-01
        37 -4.672525E+00 -3.798105E+00  1.130515E+00
        38  2.717129E+00  0.000000E+00  3.451613E+00
        39 -1.501709E+00  0.000000E+00 -7.038449E-01
        40 -5.259560E-01  0.000000E+00  1.121563E+00
        41 -1.885146E+00  1.587463E+00 -2.296505E+00
        42  7.519404E+00 -6.954602E+00  5.803966E+00
        43 -1.568254E+00 -1.915552E+00  1.103783E+00
        44  1.640147E+00 -4.387988E+00  3.451662E+00
        45 -2.490131E+00 -9.143640E-02 -6.610208E-01

 stresses (elem, integ.pnt.,sxx,syy,szz,sxy,sxz,syz) for set EALL and time  0.1100000E+02

        37   1 -8.120775E-03  2.042539E-01  5.722413E-01  2.046568E-02 -6.404859E-02 -6.678171E-03
        37   2 -1.472433E-01  2.410087E-01  4.716167E-01  5.159791E-02 -3.416426E-02 -4.640840E-03
        37   3  6.450776E-01  7.473283E-01  6.788916E-01  3.281565E-02 -7.300121E-02 -6.771350E-02
        37   4 -2.321431E-01  2.941031E-01  4.577084E-01  9.515299E-02  1.582709E-02 -1.719241E-02
        38   1  2.427397E-02 -2.280013E-01 -1.376163E-01 -2.672593E-02 -3.072743E-02 -1.167474E-01
        38   2 -2.109186E-01 -2.762012E-01 -7.298655E-01  3.045141E-02 -7.927297E-02  1.145867E-01
        38   3  2.649188E-02 -1.833559E-01 -7.186390E-03 -3.860852E-02 -1.686363E-01 -7.351471E-02
        38   4 -3.157525E-01 -4.207971E-01 -6.936614E-01 -4.128484E-02 -1.223452E-01  1.163171E-01
        39   1 -3.265978E-01  5.264220E-01  2.338664E-01  8.007552E-02 -2.318875E-01 -4.081311E-02
        39   2 -7.791200E-01  5.256117E-01  2.342051E-01  9.712200E-02 -2.509697E-01 -8.096736E-02
        39   3 -2.835485E-01  3.177414E-01  5.482963E-01  1.417328E-01  2.712122E-01 -1.014642E-01
        39   4  5.505530E-01  2.854067E-01  4.935053E-01  5.489547E-02  2.686018E-01 -9.026856E-02
        40   1 -9.729501E-02 -6.005875E-01 -1.201363E+00 -1.623502E-01  3.131573E-01 -2.005330E-02
        40   2 -1.399071E-01 -5.337515E-01 -1.035564E+00 -2.183020E-01  3.061294E-01 -2.066168E-02
        40   3 -2.492508E-03 -6.795596E-01 -1.196927E+00 -1.156047E-01  3.665493E-01 -3.047279E-02
        40   4  3.096402E-01  7.404314E-01  1.050054E+00  1.097540E-01 -5.284627E-02 -9.512486E-02
        41   1 -2.754489E-01  1.505702E-01  5.267087E-01  3.120287E-01  1.155742E-01 -3.743198E-02
        41   2  2.004871E-01  1.917490E-01  6.524243E-01  3.267745E-01 -5.850127E-02 -2.780758E-02
        41   3  2.761438E-01  3.261953E-01  1.024726E+00 -1.416941E-01 -1.260378E-01 -7.108856E-02
        41   4  2.650412E-01  1.722887E-01  6.943036E-01  2.000664E-01 -6.156316E-03 -1.704070E-02
        42   1  9.978298E-02  3.938532E-01  1.355159E-01 -1.726004E-01  9.493348E-02  1.967737E-02
        42   2  1.458304E-01  7.956873E-01  3.444672E-01 -2.002212E-01  1.812103E-01  1.467858E-02
        42   3 -1.319680E-01  7.534881E-01  2.827110E-01 -1.965431E-01  1.047993E-01 -1.748725E-02
        42   4  5.925421E-03 -7.234741E-01 -4.333517E-01  9.911433E-02 -1.848687E-01  9.939594E-02
        43   1  3.743418E-01  5.526543E-01  4.539093E-01 -2.552590E-01  1.852780E-01  2.591109E-02
        43   2  4.909535E-02 -5.431025E-01 -6.257324E-01 -6.293790E-04 -2.734802E-01  1.024905E-01
        43   3  1.424372E-01  2.366808E-01  1.850460E-01 -2.113829E-01  7.010385E-02  9.099863E-03
        43   4 -8.790134E-02  5.072117E-01  4.282527E-01 -1.687138E-01  1.465814E-01 -2.640271E-02
        44   1  5.059930E-01 -3.708021E-01 -3.625037E-01  1.268004E-01 -9.003121E-02  5.832066E-03
        44   2  1.271811E-01 -6.040165E-02 -6.353745E-01 -2.333464E-01 -1.131446E-01  6.589746E-02
        44   3 -1.320162E-01 -5.136899E-01 -4.401337E-01  1.715383E-01 -3.023079E-02  1.863391E-02
        44   4  4.815321E-01 -3.274513E-01 -4.393980E-01  1.377837E-01 -7.641763E-02 -3.585902E-03
        45   1 -3.278666E-01 -8.136367E-01 -2.003503E-01  3.599927E-02 -3.094576E-01  3.933504E-02
        45   2 -2.029092E-01  4.036693E-02 -3.393070E-01  6.012760E-02  5.339757E-02  6.397478E-02
        45   3  5.504941E-02  4.576349E-02 -2.848254E-01  5.179494E-02  7.416991E-02  4.379894E-02
        45   4 -2.855633E-01 -7.258866E-01 -1.107381E-01 -6.709128E-02 -3.067541E-01  5.080139E-02
        46   1 -5.595755E-01 -6.737814E-01 -4.739271E-01  5.008692E-02 -1.320872E-01  5.154630E-02
        46   2 -4.795610E-02 -5.562099E-01 -4.186913E-01  2.797981E-02 -1.606076E-01  2.921489E-02
        46   3  8.161246E-02 -5.987475E-01 -2.840379E-01 -7.922225E-03 -1.260178E-01  2.770367E-02
        46   4  1.829156E-01 -4.470730E-01 -3.757089E-01 -4.683773E-02 -1.831498E-01  1.488262E-02
        47   1 -3.151313E-01  4.947873E-01  8.358093E-01  2.563019E-01 -2.111426E-01  4.184808E-02
        47   2  3.019848E-02 -2.322074E-01 -1.043437E+00 -1.955589E-01  3.587083E-01 -6.962236E-02
        47   3 -4.540642E-01 -1.258079E-01 -3.211324E-01 -1.287214E-01  3.244365E-01  2.656502E-03
        47   4 -3.271162E-01 -4.730747E-01 -4.248752E-01 -1.547310E-01  3.692747E-01 -8.892107E-02
        48   1  5.220951E-01  4.159057E-01  1.116530E+00  1.700698E-02 -6.428233E-02 -5.757008E-02
        48   2  1.094882E-01  4.814144E-01 -7.190675E-02 -4.627363E-03 -1.014228E-01  8.399455E-02
        48   3  2.244597E-01  4.141382E-01  4.714891E-02  5.205624E-02 -2.205531E-02  7.825892E-02
        48   4  2.550629E-01  2.360783E-01  7.991298E-01  1.457380E-01  5.790530E-02 -1.546570E-01

 internal state variables (elem, integ.pnt.,values) for set EALL and time  0.1100000E+02

        37   1 -3.203962E-04 -2.191303E-04 -1.015600E-04  1.738325E-04 -3.406988E-04 -6.143234E-05 -3.202421E-04 -2.520232E-04 -1.927258E-04  1.710421E-04 -3.190481E-04 -6.105880E-05  6.568236E+02  4.532816E+00
        37   2 -1.242389E-04 -1.762350E-04  8.956592E-05  2.284313E-04 -8.941237E-04 -2.197624E-05 -9.282247E-05 -2.167943E-04  2.431691E-05  2.075411E-04 -9.288326E-04 -2.032523E-05  6.568236E+02  4.532816E+00
        37   3 -2.079810E-04  1.994943E-04  2.692547E-04  1.014484E-04 -1.354317E-04 -5.972296E-05 -5.165438E-04  1.407472E-04  2.827426E-04  1.175083E-04 -1.082785E-04  1.412711E-05  6.792291E+02  6.834208E+00
        37   4 -6.809053E-05 -5.229506E-05  5.009389E-05  8.721395E-04 -9.625791E-04 -5.064009E-05 -1.982539E-05 -9.490255E-05 -1.641078E-05  8.626998E-04 -1.036437E-03 -4.263346E-05  6.568236E+02  4.532816E+00
        38   1  1.855787E-05 -6.438471E-05  1.320531E-04 -3.616065E-04  7.775186E-05 -2.296888E-04  8.411092E-06 -3.168661E-05  8.125604E-05 -2.089189E-04  4.987670E-05 -1.207871E-04  6.137920E+02  2.060098E+00
        38   2 -1.413225E-04 -8.281591E-05 -2.832496E-04 -3.803465E-04  7.990926E-04  1.865049E-04 -1.040056E-04 -5.408145E-05 -1.714731E-04 -3.011575E-04  6.329877E-04  1.080648E-04  6.361080E+02  3.100960E+00
        38   3 -1.576193E-04  5.429757E-05  1.656246E-04 -3.541506E-04 -3.437186E-04 -1.164015E-04 -9.389723E-05  3.740022E-05  9.765571E-05 -2.027387E-04 -1.798368E-04 -5.934809E-05  6.137920E+02  2.060098E+00
        38   4 -4.116529E-04 -8.274722E-05 -4.384282E-04 -4.814386E-04 -2.193494E-04  3.874171E-04 -3.036593E-04 -4.543139E-05 -2.947811E-04 -3.562568E-04 -1.311430E-04  2.609725E-04  6.361080E+02  3.100960E+00
        39   1  2.014053E-04 -1.137143E-04 -3.588838E-05  2.818639E-04 -7.129595E-04  1.225715E-05  3.319508E-04 -2.453676E-04 -8.503667E-05  2.695932E-04 -6.566810E-04  5.218036E-05  6.637473E+02  5.146026E+00
        39   2  1.270272E-04  3.300390E-06 -5.749416E-05  9.662193E-04 -8.831728E-04  6.393569E-05  3.319982E-04 -1.162991E-04 -1.243702E-04  1.086582E-03 -8.448354E-04  1.518525E-04  6.637473E+02  5.146026E+00
        39   3 -3.655904E-05  2.377106E-04  1.475254E-04  3.194127E-04 -1.363514E-04 -3.757098E-05  1.317163E-04  3.511744E-04  2.199641E-05  3.218072E-04 -8.997418E-04  1.533638E-04  6.861527E+02  7.758756E+00
        39   4 -1.324433E-04  2.532463E-04  2.447010E-04  1.524963E-04  1.692329E-05 -4.920201E-05 -4.863385E-04  4.561047E-04  3.100619E-04  1.839559E-04 -5.852100E-04  1.054961E-04  6.861527E+02  7.758756E+00
        40   1 -1.867423E-04  1.283660E-04 -1.114880E-04 -6.833650E-06  1.787830E-04 -4.003815E-05 -5.732267E-04  5.806804E-04  4.815499E-04  4.785759E-04 -5.243547E-04 -3.721893E-05  6.930764E+02  8.808380E+00
        40   2 -6.631318E-05  2.097251E-04 -1.903003E-04 -2.369416E-06  1.067525E-04 -9.441574E-05 -2.264822E-04  7.471335E-04  1.763811E-04  6.558383E-04 -6.757164E-04 -1.684962E-04  6.930764E+02  8.808380E+00
        40   3 -4.820541E-06  2.496489E-06 -5.719471E-05  2.482826E-04  1.373278E-04 -1.214937E-04 -2.028851E-04  3.361411E-04  6.129546E-04  9.597569E-04 -7.820480E-04 -2.038167E-04  6.930764E+02  8.808380E+00
        40   4  2.174249E-04  4.556615E-05  1.398350E-04  8.452835E-04 -6.759624E-04 -3.863992E-07  2.922259E-04 -7.425454E-05 -4.428521E-05  1.056419E-03 -8.865766E-04  1.141727E-04  6.706709E+02  5.842194E+00
        41   1  2.754514E-04 -1.329961E-04  3.888245E-05  1.175997E-03 -7.788438E-04 -4.751321E-05  3.501208E-04 -1.583591E-04 -4.326419E-05  1.036669E-03 -9.095483E-04 -2.495325E-05  6.568236E+02  4.532816E+00
        41   2  3.643022E-04 -1.357721E-04 -1.545500E-04  1.041969E-03 -2.745141E-04  4.177322E-05  3.772425E-04 -1.540458E-04 -2.575490E-04  8.857949E-04 -2.521432E-04  6.378613E-05  6.568236E+02  4.532816E+00
        41   3  7.392382E-05  1.075066E-04  2.739508E-04  5.654969E-04 -3.224643E-04  2.436324E-05  9.995588E-05  1.389033E-04  1.131885E-04  1.214946E-03 -3.344972E-04  1.603824E-04  6.792291E+02  6.834208E+00
        41   4 -3.064172E-04 -2.029617E-04 -1.067328E-04  3.158035E-04 -1.615827E-04  4.454864E-05 -3.456185E-04 -2.204871E-04 -2.117530E-04  1.980358E-04 -1.685347E-04  5.950026E-05  6.568236E+02  4.532816E+00
        42   1  8.323612E-05  2.315936E-04  7.141884E-05 -7.139527E-04  5.007324E-04 -5.100480E-05  4.534696E-05  1.200797E-04  3.793344E-05 -3.763358E-04  2.667103E-04 -2.989070E-05  6.068960E+02  1.815532E+00
        42   2 -3.271821E-05  4.731408E-04  1.204464E-04 -4.994537E-04  6.153220E-04 -2.336305E-05 -1.741238E-05  2.454785E-04  6.171096E-05 -2.555456E-04  3.210495E-04 -1.450353E-05  6.068960E+02  1.815532E+00
        42   3 -3.197096E-04  4.636053E-04  2.980784E-04 -3.195001E-04  5.253753E-04 -7.233770E-05 -1.699706E-04  2.400550E-04  1.597942E-04 -1.573703E-04  2.790157E-04 -3.825585E-05  6.068960E+02  1.815532E+00
        42   4  5.354966E-04 -4.067243E-04 -2.586404E-04 -5.593848E-04  4.226728E-04  3.403867E-04  3.624003E-04 -2.487169E-04 -1.626972E-04 -4.121571E-04  3.367735E-04  2.136206E-04  6.292120E+02  2.732827E+00
        43   1  1.833594E-05  1.609573E-04  4.632886E-04 -7.028431E-04  6.342563E-04 -2.618027E-05  5.513301E-06  7.980188E-05  2.479809E-04 -3.625886E-04  3.305732E-04 -1.688200E-05  6.068960E+02  1.815532E+00
        43   2  5.480319E-04 -2.365569E-04 -4.345343E-04 -6.656198E-04  3.659146E-04  3.290148E-04  3.688347E-04 -1.417316E-04 -2.723979E-04 -4.641628E-04  3.168312E-04  2.048572E-04  6.292120E+02  2.732827E+00
        43   3  9.528566E-05  8.991774E-05  2.040767E-04 -6.043851E-04  6.627835E-04 -6.795146E-05  5.075719E-05  4.566691E-05  1.095312E-04 -3.127555E-04  3.578083E-04 -3.814371E-05  6.068960E+02  1.815532E+00
        43   4 -3.076653E-04  2.822536E-04  4.624402E-04 -5.089878E-04  3.883712E-04 -9.728551E-05 -1.645627E-04  1.459310E-04  2.465755E-04 -2.636504E-04  2.002533E-04 -5.105010E-05  6.068960E+02  1.815532E+00
        44   1  4.792810E-04 -2.226407E-04 -4.002598E-04 -4.214857E-04  4.772126E-05  7.573200E-05  3.510306E-04 -1.542714E-04 -3.044834E-04 -4.070986E-04  7.627543E-05  6.174090E-05  6.430040E+02  3.518683E+00
        44   2  1.086684E-04  4.833883E-05 -2.159393E-04 -8.988757E-04  3.699811E-05  2.033995E-04  6.005658E-05  3.020611E-05 -1.114966E-04 -5.291209E-04  4.188965E-05  1.166148E-04  6.206880E+02  2.337609E+00
        44   3 -3.538248E-04 -2.965493E-04 -3.481455E-04  1.592844E-04  1.653796E-04  7.708013E-05 -2.990272E-04 -2.137597E-04 -2.635059E-04  6.571805E-05  1.513803E-04  5.795855E-05  6.430040E+02  3.518683E+00
        44   4  5.104627E-04 -2.213086E-04 -1.818007E-04 -4.175174E-04  5.191498E-04 -2.261234E-05  3.785603E-04 -1.580791E-04 -1.127853E-04 -4.077277E-04  4.694754E-04 -1.770834E-05  6.430040E+02  3.518683E+00
        45   1  3.027149E-04 -4.265031E-04 -1.122154E-04 -8.534737E-05 -1.104011E-05  6.249733E-05  2.416728E-04 -2.770889E-04 -8.296241E-05 -7.628269E-05  8.561149E-05  3.586237E-05  6.361080E+02  3.100960E+00
        45   2 -3.582948E-04  1.682674E-04  5.021529E-05 -4.475708E-05  6.031453E-04  1.462473E-04 -2.061070E-04  9.608058E-05  3.880589E-05 -3.364321E-05  3.473273E-04  7.761907E-05  6.137920E+02  2.060098E+00
        45   3  1.553062E-04  1.215959E-04 -1.231153E-04 -4.597050E-05  6.289261E-04  1.304727E-04  8.835515E-05  6.994695E-05 -6.361198E-05 -3.340005E-05  3.595968E-04  7.066808E-05  6.137920E+02  2.060098E+00
        45   4  3.536322E-04 -2.848918E-04 -9.547049E-05 -7.297095E-04  5.163527E-05  1.214823E-04  2.794290E-04 -1.735143E-04 -7.462405E-05 -5.373222E-04  1.324527E-04  7.748131E-05  6.361080E+02  3.100960E+00
        46   1 -3.739478E-04 -1.573404E-04 -1.405671E-05 -4.622267E-05  2.001608E-05  8.017976E-05 -2.217710E-04 -7.986113E-05  2.942846E-06 -3.722070E-05  3.442778E-05  4.209808E-05  6.206880E+02  2.337609E+00
        46   2 -6.728073E-05 -3.357782E-04 -9.318375E-05 -8.497604E-05  4.852548E-04  3.718526E-06 -6.471289E-05 -2.418020E-04 -4.957427E-05 -8.305656E-05  4.738441E-04 -8.508428E-06  6.430040E+02  3.518683E+00
        46   3 -2.196798E-04 -3.812125E-04 -3.102538E-04 -1.408975E-04  1.509313E-04 -4.010707E-05 -2.026670E-04 -2.734068E-04 -2.436481E-04 -1.158882E-04  1.776581E-04 -4.496471E-05  6.430040E+02  3.518683E+00
        46   4  3.996654E-05 -1.995415E-04 -1.369658E-04 -6.196362E-04  5.477946E-04 -2.633298E-05  7.714094E-06 -1.326466E-04 -8.600411E-05 -5.049326E-04  5.358938E-04 -2.852545E-05  6.430040E+02  3.518683E+00
        47   1  5.150347E-04 -7.155919E-05  2.980504E-05  7.709056E-04 -5.763646E-04  1.930139E-04  8.576741E-04 -2.078446E-04 -1.759689E-04  7.757307E-04 -5.553076E-04  2.195064E-04  6.706709E+02  5.842194E+00
        47   2  5.180247E-05  3.321178E-05 -8.177901E-05  2.343971E-04  1.005551E-04 -1.190240E-04 -2.543066E-05  1.319779E-04  4.950554E-04  1.169480E-03 -8.470642E-04 -7.735720E-05  6.930764E+02  8.808380E+00
        47   3  7.332847E-06  4.737870E-05 -4.016688E-05  1.935993E-04  1.520372E-04  8.053257E-06  2.752217E-04  1.211965E-04  6.421713E-05  8.663516E-04 -6.211207E-04  1.188790E-05  6.930764E+02  8.808380E+00
        47   4 -1.315532E-04  1.622203E-04 -5.880411E-05  1.844835E-04  1.030530E-04 -1.688036E-04 -1.948744E-04  6.346702E-04  6.765852E-05  9.205329E-04 -8.781483E-04 -1.424778E-04  6.930764E+02  8.808380E+00
        48   1 -3.215986E-04  4.173239E-05  1.386765E-05  4.769268E-04  6.515161E-05  2.236004E-04 -4.475463E-04  1.839262E-05 -1.831269E-04  5.665412E-04  1.378497E-04  3.252242E-04  6.637473E+02  5.146026E+00
        48   2 -1.617499E-04  2.660312E-04  1.804793E-04  1.178096E-04 -5.208847E-05  3.592851E-05 -3.529577E-04  3.054210E-04  4.544199E-04  2.497883E-04  1.202649E-04 -1.217136E-04  6.861527E+02  7.758756E+00
        48   3  7.912722E-05  1.272139E-04  1.781068E-04  4.362007E-04 -1.341927E-04 -1.617513E-05  8.067887E-05  7.429991E-05  3.922768E-04  7.668795E-04 -2.246742E-04 -2.167585E-04  6.861527E+02  7.758756E+00
        48   4 -8.960009E-05 -6.654078E-05  1.198759E-04  8.118838E-04 -8.330876E-04 -6.772982E-05 -1.289851E-04 -9.461321E-05 -2.388757E-06  8.559014E-04 -1.065842E-03  5.918226E-05  6.637473E+02  5.146026E+00

 volume (element, volume) for set EALL and time  0.1100000E+02

        37  2.087500E+07
        38  2.079167E+07
        39  2.087500E+07
        40  2.087500E+07
        41  2.087500E+07
        42  2.079167E+07
        43  2.079167E+07
        44  2.079167E+07
        45  2.079167E+07
        46  2.079167E+07
        47  2.087500E+07
        48  2.087500E+07

 displacements (vx,vy,vz) for set NALL and time  0.1200000E+02

         1 -7.578341E+00  2.655631E+00 -4.027480E+00
         2 -3.612794E+00  2.547501E+00  0.000000E+00
         3 -3.509763E+00  0.000000E+00 -3.931503E+00
         4  0.000000E+00  0.000000E+00  0.000000E+00
         5  2.052952E+00 -1.495100E+01  1.229910E+01
         6  6.350489E+00 -1.512059E+01  0.000000E+00
         7  6.752731E+00  0.000000E+00  1.249789E+01
         8  1.142360E+01  0.000000E+00  0.000000E+00
         9 -3.293142E+00 -4.692370E+00  0.000000E+00
        10  1.059900E+00  0.000000E+00  0.000000E+00
        11 -7.354536E+00 -4.604897E+00  3.048150E+00
        12 -3.040182E+00  0.000000E+00  3.020770E+00
        13  1.008990E+01 -7.511886E+00  0.000000E+00
        14  7.756705E-02 -9.834672E+00  0.000000E+00
        15 -4.276754E+00 -7.564984E-01  0.000000E+00
        16 -9.567886E-01  1.297368E+00  0.000000E+00
        17  4.870734E+00  0.000000E+00  0.000000E+00
        18 -3.478847E-01  0.000000E+00  0.000000E+00
        19  5.698894E+00 -7.416258E+00  1.233675E+01
        20 -4.118411E+00 -9.841438E+00  7.851118E+00
        21 -8.089770E+00 -9.054731E-01 -5.842910E-01
        22 -4.631801E+00  1.381539E+00 -3.976399E+00
        23  4.076961E-01  0.000000E+00  7.839403E+00
        24 -4.062066E+00  0.000000E+00 -7.205712E-01
        25 -4.756792E+00  2.591047E+00 -2.067154E+00
        26  5.331747E+00 -1.499029E+01  6.138083E+00
        27 -9.535208E-01  0.000000E+00 -1.999182E+00
        28  1.020990E+01  0.000000E+00  6.210322E+00
        29  3.706971E+00 -4.880031E+00  0.000000E+00
        30  4.424986E-03 -2.363414E+00  0.000000E+00
        31 -1.373977E+00 -3.978482E-01  0.000000E+00
        32 -6.006211E-01 -4.903892E+00  7.835463E+00
        33 -5.097326E+00 -4.346346E-01 -6.854676E-01
        34 -4.097828E+00 -2.334230E+00  3.030687E+00
        35 -8.462908E-01 -9.827333E+00  3.902419E+00
        36 -5.245244E+00 -8.070141E-01 -3.098638E-01
        37 -4.274664E+00 -4.683903E+00  1.571510E+00
        38  3.765991E+00  0.000000E+00  3.910372E+00
        39 -1.295661E+00  0.000000E+00 -3.737362E-01
        40  4.875726E-02  0.000000E+00  1.556673E+00
        41 -1.983450E+00  1.378317E+00 -2.069022E+00
        42  8.975980E+00 -7.448450E+00  6.165725E+00
        43 -1.040148E+00 -2.357821E+00  1.546684E+00
        44  2.651965E+00 -4.887853E+00  3.896585E+00
        45 -2.328782E+00 -4.146990E-01 -3.284138E-01

 stresses (elem, integ.pnt.,sxx,syy,szz,sxy,sxz,syz) for set EALL and time  0.1200000E+02

        37   1  3.072967E-01  5.358530E-01  9.608631E-01 -1.575412E-03 -3.077536E-02  1.592258E-03
        37   2 -8.531967E-02  4.928084E-01  6.273805E-01  3.227066E-02  1.065262E-01 -2.542374E-03
        37   3  1.065087E+00  9.111734E-01  7.644464E-01  2.914536E-02 -8.214910E-02 -8.816960E-02
        37   4 -2.640794E-01  4.577880E-01  6.143699E-01 -1.821555E-02  1.877175E-01 -1.498135E-02
        38   1  9.453266E-04 -2.626442E-01 -3.057072E-01  4.151749E-02 -5.672383E-02 -1.062707E-01
        38   2 -1.040548E-01 -2.343551E-01 -7.109644E-01  1.117863E-01 -2.538723E-01  1.207199E-01
        38   3  1.578131E-01 -2.996332E-01 -1.567363E-01  2.393477E-02 -1.501798E-01 -7.270783E-02
        38   4  1.710197E-02 -3.653251E-01 -4.909254E-01  3.277573E-02 -1.249014E-01  8.659519E-02
        39   1 -6.099368E-01  8.204658E-01  3.488153E-01  6.327286E-02 -2.026421E-01 -5.964826E-02
        39   2 -1.198293E+00  7.318798E-01  3.605370E-01 -3.314186E-02 -1.993136E-01 -1.254454E-01
        39   3 -4.572924E-01  2.324670E-01  6.536375E-01  1.493737E-01  4.351588E-01 -1.452226E-01
        39   4  8.706455E-01  1.682698E-01  4.943966E-01  5.224054E-02  4.004161E-01 -1.260594E-01
        40   1  3.760346E-02 -1.004624E+00 -1.733410E+00 -2.493059E-01  4.455392E-01 -2.254687E-02
        40   2 -1.511947E-01 -9.923970E-01 -1.435384E+00 -3.368315E-01  4.501297E-01 -1.198855E-02
        40   3  1.020886E-02 -1.041112E+00 -1.790697E+00 -2.308759E-01  5.369743E-01 -2.137562E-02
        40   4  2.240873E-01  9.699869E-01  1.350352E+00  4.812876E-03  4.606607E-02 -1.366625E-01
        41   1 -6.033382E-01  2.763804E-01  6.807713E-01  2.303405E-01  2.939369E-01 -4.362543E-02
        41   2  1.239097E-02  3.516369E-01  1.003926E+00  2.737174E-01 -3.401130E-02 -4.603775E-02
        41   3  2.770146E-01  3.269544E-01  1.239574E+00 -3.155489E-01 -1.241683E-01 -1.095705E-01
        41   4  6.737827E-01  4.754106E-01  1.130087E+00  2.244687E-01  1.958649E-02 -3.151466E-02
        42   1 -1.784094E-02  2.354435E-01  4.431728E-02 -6.568729E-02  1.279826E-02  3.751724E-02
        42   2  1.145514E-01  5.126923E-01  2.439779E-01 -1.504945E-01  1.003659E-01  2.452116E-02
        42   3  2.871107E-02  4.889114E-01  2.939984E-02 -1.867429E-01  1.976169E-02 -6.816286E-03
        42   4 -3.752245E-01 -6.425963E-01 -3.728346E-01  2.396704E-01 -3.276532E-01  6.899795E-02
        43   1  3.522141E-01  4.597252E-01  7.314382E-02 -1.772747E-01  1.006546E-01  4.024152E-02
        43   2 -3.283445E-01 -5.309641E-01 -5.029766E-01  1.258023E-01 -4.360005E-01  7.506212E-02
        43   3  2.654735E-02  1.555755E-01 -6.737353E-03 -1.418406E-01 -5.696493E-02  2.749915E-02
        43   4  7.656481E-02  3.291040E-01  7.877227E-02 -1.069136E-01  1.059811E-01 -1.276508E-02
        44   1  3.698046E-01 -3.262634E-01 -1.994157E-01  2.488674E-01 -1.314049E-01 -5.458044E-03
        44   2  9.164433E-02 -1.097468E-01 -6.716494E-01 -1.307868E-01 -1.575266E-01  4.703074E-02
        44   3  2.225268E-01 -3.384463E-01 -2.141657E-01  2.067647E-01 -7.014545E-02  1.170821E-02
        44   4  2.763255E-01 -3.060274E-01 -4.895086E-01  2.641284E-01 -1.988448E-01 -8.809968E-04
        45   1 -6.242721E-01 -7.544765E-01 -1.568117E-01  6.446963E-02 -4.168303E-01  4.149120E-02
        45   2  5.861150E-02 -6.376324E-02 -4.644680E-01  8.895677E-02 -5.616049E-02  5.375357E-02
        45   3 -8.411026E-02 -7.065696E-02 -3.027166E-01  7.820845E-02 -3.415096E-02  3.014389E-02
        45   4 -6.373232E-01 -7.704096E-01 -7.863873E-02  4.435995E-02 -4.245545E-01  4.630269E-02
        46   1 -3.541760E-01 -6.806809E-01 -5.315959E-01  7.587922E-02 -1.795235E-01  5.239569E-02
        46   2  5.869848E-02 -4.447156E-01 -4.332133E-01  5.373371E-02 -3.067186E-01  3.888724E-02
        46   3  4.072589E-01 -4.078481E-01 -4.113637E-02  1.469151E-02 -1.991988E-01  4.454936E-02
        46   4  2.660592E-01 -4.229879E-01 -3.744294E-01  4.909195E-02 -3.484574E-01  2.468534E-02
        47   1 -8.980233E-01  6.902691E-01  1.108405E+00  2.287457E-01 -1.991869E-01  2.503714E-02
        47   2  2.009986E-03 -3.872485E-01 -1.544717E+00 -3.515987E-01  5.327428E-01 -8.240549E-02
        47   3 -7.101438E-01 -2.369643E-01 -4.655742E-01 -2.398297E-01  4.688968E-01  2.386510E-03
        47   4 -3.894225E-01 -8.622319E-01 -6.030717E-01 -2.780159E-01  5.484459E-01 -1.017746E-01
        48   1  1.005325E+00  6.025042E-01  1.611004E+00 -5.949166E-02 -1.024995E-01 -1.210283E-01
        48   2  2.438119E-01  4.658350E-01 -2.920533E-01 -3.048025E-02 -1.430164E-01  1.190411E-01
        48   3  2.083587E-01  4.573651E-01 -1.271902E-01 -8.491522E-03 -6.725430E-03  1.208179E-01
        48   4  4.294313E-01  3.882988E-01  1.054508E+00  6.332936E-02  2.282697E-01 -2.063560E-01

 internal state variables (elem, integ.pnt.,values) for set EALL and time  0.1200000E+02

        37   1 -2.644286E-04 -1.541423E-04 -5.874767E-06  1.467488E-04 -3.020051E-04 -5.146516E-05 -3.212141E-04 -2.427734E-04 -1.641013E-04  1.727876E-04 -3.278102E-04 -6.152875E-05  6.568236E+02  4.986097E+00
        37   2 -1.293308E-04 -1.114658E-04  1.304529E-04  2.075392E-04 -7.126148E-04 -1.974592E-05 -1.031453E-04 -2.047143E-04  4.557330E-05  2.152908E-04 -9.221461E-04 -2.098898E-05  6.568236E+02  4.986097E+00
        37   3 -5.624846E-05  2.392227E-04  2.748646E-04  9.694415E-05 -1.553987E-04 -9.989934E-05 -4.788909E-04  1.765943E-04  3.124763E-04  1.261406E-04 -1.298938E-04 -7.590300E-06  6.792291E+02  7.517628E+00
        37   4 -9.768989E-05 -6.834180E-06  9.869647E-05  7.318164E-04 -7.358969E-04 -4.938945E-05 -3.543421E-05 -8.157720E-05  5.030419E-06  8.698091E-04 -1.017629E-03 -4.560643E-05  6.568236E+02  4.986097E+00
        38   1  2.127728E-05 -6.982145E-05  1.104788E-04 -3.282163E-04  6.053772E-05 -2.361546E-04  9.942657E-06 -3.559021E-05  7.772075E-05 -2.082977E-04  4.620409E-05 -1.301530E-04  6.137920E+02  2.266108E+00
        38   2 -1.237394E-04 -8.137404E-05 -2.986850E-04 -3.064090E-04  6.377363E-04  2.037449E-04 -1.042296E-04 -5.740720E-05 -1.901896E-04 -2.921660E-04  6.119280E-04  1.229396E-04  6.361080E+02  3.411056E+00
        38   3 -1.365064E-04  3.693990E-05  1.479247E-04 -3.249212E-04 -3.516178E-04 -1.236318E-04 -9.131337E-05  3.295346E-05  9.652247E-05 -2.033549E-04 -1.932258E-04 -6.548887E-05  6.137920E+02  2.266108E+00
        38   4 -3.585531E-04 -9.346169E-05 -4.223102E-04 -4.209147E-04 -2.344523E-04  3.730959E-04 -3.036329E-04 -5.313600E-05 -3.093290E-04 -3.567947E-04 -1.467726E-04  2.737995E-04  6.361080E+02  3.411056E+00
        39   1  8.529517E-05 -5.286227E-06  4.197509E-06  2.640829E-04 -6.880653E-04 -1.830093E-05  3.038380E-04 -2.133843E-04 -7.273838E-05  2.846310E-04 -7.022649E-04  4.164154E-05  6.637473E+02  5.660629E+00
        39   2 -3.651788E-05  9.168484E-05 -1.897754E-06  7.859504E-04 -8.277731E-04 -6.796665E-06  2.803285E-04 -8.283109E-05 -1.079081E-04  1.093294E-03 -8.920720E-04  1.301989E-04  6.637473E+02  5.660629E+00
        39   3 -1.138515E-04  2.094002E-04  2.144955E-04  3.420091E-04  1.863139E-04 -1.252213E-04  9.691134E-05  3.675993E-04  6.561260E-05  3.678503E-04 -7.880179E-04  1.143464E-04  6.861527E+02  8.534632E+00
        39   4  1.128324E-05  1.865209E-04  2.368721E-04  1.505438E-04  2.796021E-04 -1.212887E-04 -4.449038E-04  4.591473E-04  3.353964E-04  2.009011E-04 -4.793941E-04  7.128043E-05  6.861527E+02  8.534632E+00
        40   1 -6.409971E-05 -2.474613E-05 -3.438310E-04 -1.879239E-04  4.581745E-04 -4.591219E-05 -5.484073E-04  5.358758E-04  3.731624E-04  4.046576E-04 -3.881209E-04 -4.486835E-05  6.930764E+02  9.689218E+00
        40   2 -1.364806E-05  3.410431E-05 -3.483227E-04 -2.488157E-04  4.086214E-04 -7.807056E-05 -2.139938E-04  7.039842E-04  8.756501E-05  5.561568E-04 -5.399202E-04 -1.743590E-04  6.930764E+02  9.689218E+00
        40   3  6.733449E-05 -1.208488E-04 -3.118758E-04  1.276319E-05  4.947771E-04 -1.048404E-04 -1.744275E-04  2.867367E-04  5.027214E-04  8.975418E-04 -6.198085E-04 -2.131268E-04  6.930764E+02  9.689218E+00
        40   4  1.611637E-04  1.210448E-04  2.530293E-04  6.870085E-04 -5.228726E-04 -7.275171E-05  2.898113E-04 -4.151101E-05  1.107476E-05  1.070063E-03 -8.873841E-04  8.656782E-05  6.706709E+02  6.426413E+00
        41   1  1.637708E-04 -8.844250E-05  1.028568E-04  1.095974E-03 -5.344862E-04 -5.900319E-05  3.273617E-04 -1.508481E-04 -1.687802E-05  1.086786E-03 -8.717080E-04 -3.244324E-05  6.568236E+02  4.986097E+00
        41   2  2.909528E-04 -9.703892E-05 -3.999002E-05  1.000923E-03 -2.473473E-04  1.575207E-05  3.747426E-04 -1.488838E-04 -2.255149E-04  9.412825E-04 -2.606917E-04  5.696255E-05  6.568236E+02  4.986097E+00
        41   3  6.274707E-05  9.647962E-05  3.697332E-04  2.525071E-04 -3.272489E-04 -4.685337E-05  1.031796E-04  1.456220E-04  1.784281E-04  1.151243E-03 -3.693556E-04  1.352132E-04  6.792291E+02  7.517628E+00
        41   4 -2.199547E-04 -1.535982E-04  1.700527E-06  3.637387E-04 -1.286932E-04  2.431554E-05 -3.343221E-04 -2.159397E-04 -1.787476E-04  2.372644E-04 -1.672937E-04  5.501357E-05  6.568236E+02  4.986097E+00
        42   1  7.586182E-05  2.272094E-04  6.768363E-05 -6.837677E-04  4.732970E-04 -4.101931E-05  4.502254E-05  1.248376E-04  3.856454E-05 -3.851549E-04  2.706975E-04 -2.777390E-05  6.068960E+02  1.997085E+00
        42   2 -3.079523E-05  4.636019E-04  1.196178E-04 -4.977492E-04  5.973459E-04 -1.741765E-05 -1.762719E-05  2.549946E-04  6.469469E-05 -2.685258E-04  3.314708E-04 -1.305273E-05  6.068960E+02  1.997085E+00
        42   3 -3.027089E-04  4.555225E-04  2.784321E-04 -3.351753E-04  4.978057E-04 -6.929626E-05 -1.726976E-04  2.498228E-04  1.610049E-04 -1.715559E-04  2.836258E-04 -3.915534E-05  6.068960E+02  1.997085E+00
        42   4  4.728756E-04 -4.005037E-04 -2.483631E-04 -4.426319E-04  2.945020E-04  3.276728E-04  3.619131E-04 -2.631355E-04 -1.696049E-04 -3.932834E-04  3.082209E-04  2.230018E-04  6.292120E+02  3.006110E+00
        43   1  2.827057E-05  1.674050E-04  4.338547E-04 -6.940095E-04  6.152726E-04 -1.717337E-05  9.497360E-06  8.643988E-05  2.502491E-04 -3.785969E-04  3.411558E-04 -1.443366E-05  6.068960E+02  1.997085E+00
        43   2  4.872378E-04 -2.386514E-04 -4.173458E-04 -5.699811E-04  2.135630E-04  3.190281E-04  3.695139E-04 -1.521612E-04 -2.840312E-04 -4.571894E-04  2.773060E-04  2.147486E-04  6.292120E+02  3.006110E+00
        43   3  8.980445E-05  9.076133E-05  1.905441E-04 -5.948144E-04  6.128130E-04 -5.882542E-05  5.142454E-05  4.840739E-05  1.103313E-04 -3.258285E-04  3.582946E-04 -3.678916E-05  6.068960E+02  1.997085E+00
        43   4 -2.887723E-04  2.778690E-04  4.357533E-04 -4.986236E-04  3.849201E-04 -9.387896E-05 -1.662983E-04  1.520660E-04  2.497843E-04 -2.738515E-04  2.096008E-04 -5.249972E-05  6.068960E+02  1.997085E+00
        44   1  4.557493E-04 -2.223029E-04 -3.682702E-04 -2.862984E-04 -2.877979E-06  6.483153E-05  3.677274E-04 -1.658793E-04 -3.139414E-04 -3.801519E-04  6.039181E-05  6.176773E-05  6.430040E+02  3.870551E+00
        44   2  1.110120E-04  4.352678E-05 -2.342162E-04 -8.590970E-04 -3.010468E-06  1.984994E-04  6.469180E-05  3.019103E-05 -1.255392E-04 -5.464730E-04  2.899128E-05  1.219962E-04  6.206880E+02  2.571370E+00
        44   3 -2.888143E-04 -2.864927E-04 -3.217239E-04  2.108327E-04  1.216128E-04  7.189628E-05 -2.940320E-04 -2.257281E-04 -2.722425E-04  9.285374E-05  1.441803E-04  6.013499E-05  6.430040E+02  3.870551E+00
        44   4  4.793614E-04 -2.152306E-04 -1.973515E-04 -2.777278E-04  3.896176E-04 -2.021682E-05  3.941478E-04 -1.675297E-04 -1.280186E-04 -3.788985E-04  4.497308E-04 -1.802875E-05  6.430040E+02  3.870551E+00
        45   1  2.384004E-04 -4.239842E-04 -9.734293E-05 -5.673475E-05 -1.369831E-04  6.862084E-05  2.325454E-04 -2.959853E-04 -8.281189E-05 -6.993159E-05  3.969953E-05  4.097177E-05  6.361080E+02  3.411056E+00
        45   2 -3.273936E-04  1.567233E-04  2.501420E-05 -2.308987E-05  5.500606E-04  1.474740E-04 -2.062614E-04  9.719994E-05  3.146697E-05 -2.738225E-05  3.472113E-04  8.256320E-05  6.137920E+02  2.266108E+00
        45   3  1.434173E-04  1.127801E-04 -1.278249E-04 -2.646925E-05  5.786808E-04  1.278654E-04  8.895307E-05  7.058878E-05 -6.907089E-05 -2.794041E-05  3.612775E-04  7.377339E-05  6.137920E+02  2.266108E+00
        45   4  2.824761E-04 -2.990245E-04 -7.673698E-05 -6.396988E-04 -8.326163E-05  1.228623E-04  2.701996E-04 -1.918375E-04 -7.230419E-05 -5.387591E-04  8.622330E-05  8.361970E-05  6.361080E+02  3.411056E+00
        46   1 -3.533306E-04 -1.729474E-04 -3.298731E-05 -2.474148E-05 -2.381612E-05  8.623056E-05 -2.275464E-04 -9.090538E-05 -4.265013E-06 -3.121800E-05  1.957851E-05  4.705126E-05  6.206880E+02  2.571370E+00
        46   2 -4.495434E-05 -3.246143E-04 -1.109745E-04 -5.654214E-05  3.227448E-04  1.661458E-05 -6.013993E-05 -2.554347E-04 -6.095283E-05 -7.719524E-05  4.403227E-04 -3.623460E-06  6.430040E+02  3.870551E+00
        46   3 -1.581507E-04 -3.702906E-04 -2.763379E-04 -1.191448E-04  6.490262E-05 -2.004141E-05 -1.918697E-04 -2.895214E-04 -2.476632E-04 -1.154026E-04  1.543303E-04 -3.978199E-05  6.430040E+02  3.870551E+00
        46   4  6.409202E-05 -2.059918E-04 -1.475841E-04 -5.294005E-04  3.635409E-04 -1.471129E-05  1.859200E-05 -1.455057E-04 -9.708159E-05 -5.047709E-04  4.977616E-04 -2.568724E-05  6.430040E+02  3.870551E+00
        47   1  2.814832E-04  1.765209E-05  1.595294E-04  7.455165E-04 -5.722886E-04  1.696031E-04  8.137474E-04 -1.801153E-04 -1.239366E-04  8.334979E-04 -6.041761E-04  2.274721E-04  6.706709E+02  6.426413E+00
        47   2  8.578243E-05  4.649528E-07 -3.049306E-04 -8.594893E-05  4.646572E-04 -1.477922E-04 -4.897039E-06  1.231547E-04  3.942925E-04  1.071231E-03 -6.869925E-04 -1.046558E-04  6.930764E+02  9.689218E+00
        47   3 -9.110166E-05  2.538594E-05 -8.333769E-05 -3.386078E-05  4.556029E-04  7.664693E-06  2.364993E-04  1.185780E-04  4.151241E-05  8.001735E-04 -4.786673E-04  1.279343E-05  6.930764E+02  9.689218E+00
        47   4 -1.232758E-04  5.264876E-06 -1.123204E-04 -6.858341E-05  4.780368E-04 -1.985079E-04 -2.088885E-04  5.927812E-04  3.832420E-05  8.428275E-04 -7.133596E-04 -1.767197E-04  6.930764E+02  9.689218E+00
        48   1 -1.975465E-04  5.563234E-05  1.585088E-04  3.672699E-04  5.233232E-06  1.278924E-04 -4.257107E-04  2.683183E-05 -1.277041E-04  5.620844E-04  1.203536E-04  3.064885E-04  6.637473E+02  5.660629E+00
        48   2 -9.088467E-05  2.707988E-04  7.776407E-05  6.914354E-05 -1.345734E-04  1.065981E-04 -3.437335E-04  3.382136E-04  4.347799E-04  2.442355E-04  8.160297E-05 -8.960027E-05  6.861527E+02  8.534632E+00
        48   3  8.331717E-05  1.613031E-04  1.015103E-04  3.254434E-04 -1.062718E-04  6.822234E-05  9.152843E-05  1.025569E-04  3.826870E-04  7.737700E-04 -2.292264E-04 -1.852713E-04  6.861527E+02  8.534632E+00
        48   4 -5.265009E-05 -3.852958E-05  1.993741E-04  7.037648E-04 -5.823694E-04 -1.546213E-04 -1.220041E-04 -8.921443E-05  3.672294E-05  8.778334E-04 -1.035822E-03  2.131048E-05  6.637473E+02  5.660629E+00

 volume (element, volume) for set EALL and time  0.1200000E+02

        37  2.087500E+07
        38  2.079167E+07
        39  2.087500E+07
        40  2.087500E+07
        41  2.087500E+07
        42  2.079167E+07
        43  2.079167E+07
        44  2.079167E+07
        45  2.079167E+07
        46  2.079167E+07
        47  2.087500E+07
        48  2.087500E+07

 displacements (vx,vy,vz) for set NALL and time  0.1300000E+02

         1 -7.896480E+00  2.232925E+00 -3.570266E+00
         2 -3.813680E+00  2.140036E+00  0.000000E+00
         3 -3.671848E+00  0.000000E+00 -3.489647E+00
         4  0.000000E+00  0.000000E+00  0.000000E+00
         5  3.578627E+00 -1.567967E+01  1.267871E+01
         6  7.779550E+00 -1.588527E+01  0.000000E+00
         7  8.301502E+00  0.000000E+00  1.291655E+01
         8  1.278300E+01  0.000000E+00  0.000000E+00
         9 -2.851726E+00 -5.545438E+00  0.000000E+00
        10  1.627914E+00  0.000000E+00  0.000000E+00
        11 -6.987044E+00 -5.460624E+00  3.905083E+00
        12 -2.530816E+00  0.000000E+00  3.866258E+00
        13  1.146699E+01 -7.899654E+00  0.000000E+00
        14  1.018327E+00 -1.074739E+01  0.000000E+00
        15 -4.221277E+00 -1.386910E+00  0.000000E+00
        16 -1.002970E+00  1.089763E+00  0.000000E+00
        17  5.848419E+00  0.000000E+00  0.000000E+00
        18 -1.143939E-01  0.000000E+00  0.000000E+00
        19  7.174655E+00 -7.812767E+00  1.272265E+01
        20 -3.061076E+00 -1.071308E+01  8.586604E+00
        21 -8.134168E+00 -1.529124E+00  5.487369E-02
        22 -4.831231E+00  1.167310E+00 -3.527718E+00
        23  1.472037E+00  0.000000E+00  8.603462E+00
        24 -3.958635E+00  0.000000E+00 -7.929825E-02
        25 -4.980168E+00  2.175410E+00 -1.832475E+00
        26  6.681759E+00 -1.572491E+01  6.373554E+00
        27 -9.813276E-01  0.000000E+00 -1.771771E+00
        28  1.158810E+01  0.000000E+00  6.436934E+00
        29  4.675532E+00 -5.324372E+00  0.000000E+00
        30  5.473982E-01 -2.787593E+00  0.000000E+00
        31 -1.174800E+00 -7.162490E-01  0.000000E+00
        32  4.562057E-01 -5.333308E+00  8.575842E+00
        33 -5.029780E+00 -7.495906E-01 -4.402870E-02
        34 -3.620787E+00 -2.757838E+00  3.882141E+00
        35  1.036405E-01 -1.071456E+01  4.267271E+00
        36 -5.204727E+00 -1.435820E+00  1.627117E-02
        37 -3.844406E+00 -5.533754E+00  1.988267E+00
        38  4.768005E+00  0.000000E+00  4.304458E+00
        39 -1.086224E+00  0.000000E+00 -5.175367E-02
        40  6.124012E-01  0.000000E+00  1.966646E+00
        41 -2.063700E+00  1.165060E+00 -1.835959E+00
        42  1.031170E+01 -7.844899E+00  6.401730E+00
        43 -5.125579E-01 -2.781732E+00  1.966118E+00
        44  3.629735E+00 -5.336137E+00  4.274407E+00
        45 -2.154017E+00 -7.315579E-01 -4.179533E-03

 stresses (elem, integ.pnt.,sxx,syy,szz,sxy,sxz,syz) for set EALL and time  0.1300000E+02

        37   1  6.471825E-01  8.941896E-01  1.379079E+00 -2.546941E-02  5.346021E-03  1.061479E-02
        37   2 -1.795825E-02  7.645435E-01  7.939389E-01  1.121583E-02  2.584979E-01 -2.252525E-04
        37   3  1.515692E+00  1.084189E+00  8.530182E-01  2.499769E-02 -9.164691E-02 -1.099294E-01
        37   4 -2.975769E-01  6.337782E-01  7.820621E-01 -1.408704E-01  3.731644E-01 -1.244582E-02
        38   1 -2.393149E-02 -2.999485E-01 -4.876146E-01  1.151297E-01 -8.474060E-02 -9.446102E-02
        38   2  1.187323E-02 -1.885300E-01 -6.882294E-01  1.999119E-01 -4.421607E-01  1.268598E-01
        38   3  2.987222E-01 -4.253198E-01 -3.196163E-01  9.125636E-02 -1.300915E-01 -7.152806E-02
        38   4  3.767454E-01 -3.044957E-01 -2.703821E-01  1.131970E-01 -1.270333E-01  5.397994E-02
        39   1 -9.142678E-01  1.136662E+00  4.722146E-01  4.476248E-02 -1.700608E-01 -7.977357E-02
        39   2 -1.647375E+00  9.527011E-01  4.954904E-01 -1.743077E-01 -1.425841E-01 -1.731120E-01
        39   3 -6.436962E-01  1.378974E-01  7.641910E-01  1.568974E-01  6.110214E-01 -1.917848E-01
        39   4  1.213382E+00  3.955553E-02  4.920747E-01  4.907636E-02  5.416334E-01 -1.641993E-01
        40   1  1.834376E-01 -1.437287E+00 -2.301504E+00 -3.422133E-01  5.868296E-01 -2.510734E-02
        40   2 -1.628221E-01 -1.484318E+00 -1.861645E+00 -4.634053E-01  6.040073E-01 -2.482882E-03
        40   3  2.409614E-02 -1.427679E+00 -2.425467E+00 -3.545496E-01  7.188594E-01 -1.137379E-02
        40   4  1.311811E-01  1.214191E+00  1.669608E+00 -1.091372E-01  1.532292E-01 -1.811214E-01
        41   1 -9.562744E-01  4.120492E-01  8.453428E-01  1.410184E-01  4.858721E-01 -5.008308E-02
        41   2 -1.918880E-01  5.240702E-01  1.381942E+00  2.148852E-01 -7.297746E-03 -6.559998E-02
        41   3  2.765234E-01  3.257783E-01  1.466503E+00 -5.029164E-01 -1.214653E-01 -1.506225E-01
        41   4  1.113956E+00  8.028926E-01  1.598796E+00  2.501398E-01  4.751810E-02 -4.708140E-02
        42   1 -1.444873E-01  6.376736E-02 -5.401626E-02  4.974880E-02 -7.581243E-02  5.661638E-02
        42   2  8.050164E-02  2.057995E-01  1.353812E-01 -9.651034E-02  1.312589E-02  3.518299E-02
        42   3  2.019774E-01  2.019910E-01 -2.433712E-01 -1.755204E-01 -7.189900E-02  4.747848E-03
        42   4 -7.853542E-01 -5.541691E-01 -3.068241E-01  3.909863E-01 -4.810192E-01  3.596670E-02
        43   1  3.272061E-01  3.581578E-01 -3.370728E-01 -9.255681E-02  9.521786E-03  5.561480E-02
        43   2 -7.346498E-01 -5.164344E-01 -3.700121E-01  2.624257E-01 -6.101890E-01  4.521812E-02
        43   3 -9.839351E-02  6.751112E-02 -2.133558E-01 -6.627508E-02 -1.936204E-01  4.720732E-02
        43   4  2.537424E-01  1.360236E-01 -2.979128E-01 -4.011382E-02  6.172344E-02  1.994501E-03
        44   1  2.204869E-01 -2.765675E-01 -2.160862E-02  3.805786E-01 -1.757973E-01 -1.771326E-02
        44   2  5.254220E-02 -1.636267E-01 -7.105004E-01 -1.932119E-02 -2.049004E-01  2.670194E-02
        44   3  6.059104E-01 -1.469037E-01  3.177282E-02  2.443936E-01 -1.130721E-01  4.081266E-03
        44   4  5.281399E-02 -2.815860E-01 -5.416695E-01  4.004944E-01 -3.313503E-01  2.025617E-03
        45   1 -9.423543E-01 -6.878383E-01 -1.094032E-01  9.516539E-02 -5.318534E-01  4.362720E-02
        45   2  3.406395E-01 -1.773853E-01 -5.990616E-01  1.197462E-01 -1.741993E-01  4.261175E-02
        45   3 -2.337442E-01 -1.976569E-01 -3.216935E-01  1.064424E-01 -1.508289E-01  1.541852E-02
        45   4 -1.015430E+00 -8.158789E-01 -4.404090E-02  1.653006E-01 -5.508208E-01  4.119653E-02
        46   1 -1.319038E-01 -6.877110E-01 -5.942407E-01  1.034539E-01 -2.302055E-01  5.311257E-02
        46   2  1.738073E-01 -3.218412E-01 -4.471116E-01  8.155108E-02 -4.643098E-01  4.920247E-02
        46   3  7.584075E-01 -1.987851E-01  2.223395E-01  3.920919E-02 -2.779268E-01  6.262174E-02
        46   4  3.549027E-01 -3.949892E-01 -3.714155E-01  1.533621E-01 -5.267709E-01  3.524623E-02
        47   1 -1.525626E+00  8.987561E-01  1.398641E+00  1.976435E-01 -1.852273E-01  6.820968E-03
        47   2 -2.823535E-02 -5.533414E-01 -2.080386E+00 -5.189222E-01  7.186336E-01 -9.584039E-02
        47   3 -9.843270E-01 -3.563094E-01 -6.199555E-01 -3.590947E-01  6.232684E-01  2.067661E-03
        47   4 -4.549604E-01 -1.279519E+00 -7.932947E-01 -4.101193E-01  7.400094E-01 -1.151483E-01
        48   1  1.525146E+00  8.028896E-01  2.141375E+00 -1.423198E-01 -1.435516E-01 -1.894251E-01
        48   2  3.876170E-01  4.456968E-01 -5.306685E-01 -5.841169E-02 -1.873510E-01  1.565181E-01
        48   3  1.896177E-01  5.011647E-01 -3.167629E-01 -7.410613E-02  1.004100E-02  1.666006E-01
        48   4  6.171864E-01  5.515243E-01  1.327327E+00 -2.638193E-02  4.120738E-01 -2.616241E-01

 internal state variables (elem, integ.pnt.,values) for set EALL and time  0.1300000E+02

        37   1 -1.954836E-04 -7.566334E-05  1.063945E-04  1.131825E-04 -2.531121E-04 -3.901571E-05 -3.135702E-04 -2.241048E-04 -1.228262E-04  1.702886E-04 -3.301599E-04 -6.040078E-05  6.568236E+02  5.439379E+00
        37   2 -1.334342E-04 -3.386037E-05  1.765382E-04  1.804148E-04 -4.914420E-04 -1.682423E-05 -1.134468E-04 -1.834732E-04  7.153446E-05  2.193091E-04 -8.884166E-04 -2.124472E-05  6.568236E+02  5.439379E+00
        37   3  1.175768E-04  2.825232E-04  2.788292E-04  9.082252E-05 -1.767928E-04 -1.446324E-04 -4.171289E-04  2.178946E-04  3.421450E-04  1.336838E-04 -1.541068E-04 -3.518917E-05  6.792291E+02  8.201049E+00
        37   4 -1.309133E-04  4.657780E-05  1.542838E-04  5.583977E-04 -4.617109E-04 -4.718590E-05 -5.439730E-05 -6.221477E-05  3.236323E-05  8.551090E-04 -9.658016E-04 -4.814080E-05  6.568236E+02  5.439379E+00
        38   1  2.418876E-05 -7.506197E-05  8.191404E-05 -2.808551E-04  3.839757E-05 -2.394011E-04  1.162586E-05 -3.959232E-05  7.105455E-05 -2.017192E-04  4.026314E-05 -1.385830E-04  6.137920E+02  2.472118E+00
        38   2 -1.006466E-04 -7.828796E-05 -3.122764E-04 -2.122784E-04  4.335274E-04  2.209163E-04 -1.016509E-04 -6.007329E-05 -2.089582E-04 -2.724622E-04  5.679286E-04  1.385902E-04  6.361080E+02  3.721152E+00
        38   3 -1.079742E-04  1.500547E-05  1.233124E-04 -2.827846E-04 -3.542363E-04 -1.299931E-04 -8.546153E-05  2.635711E-05  9.240540E-05 -1.985173E-04 -2.049961E-04 -7.154621E-05  6.137920E+02  2.472118E+00
        38   4 -2.889645E-04 -1.048173E-04 -3.962647E-04 -3.410965E-04 -2.484319E-04  3.496878E-04 -2.951971E-04 -6.156926E-05 -3.195500E-04 -3.475671E-04 -1.626985E-04  2.826859E-04  6.361080E+02  3.721152E+00
        39   1 -5.060794E-05  1.212023E-04  5.077773E-05  2.400900E-04 -6.510164E-04 -5.346904E-05  2.593400E-04 -1.662589E-04 -5.491069E-05  2.959644E-04 -7.413631E-04  2.701560E-05  6.637473E+02  6.175232E+00
        39   2 -2.257592E-04  1.934336E-04  6.268457E-05  5.668749E-04 -7.534767E-04 -8.874790E-05  2.064001E-04 -3.753023E-05 -8.378519E-05  1.071532E-03 -9.279385E-04  9.887898E-05  6.637473E+02  6.175232E+00
        39   3 -2.004137E-04  1.755227E-04  2.882228E-04  3.640319E-04  5.501042E-04 -2.232481E-04  4.946171E-05  3.785342E-04  1.196809E-04  4.162920E-04 -6.225478E-04  6.104325E-05  6.861527E+02  9.310508E+00
        39   4  1.738608E-04  1.092885E-04  2.257566E-04  1.468371E-04  5.743185E-04 -2.017686E-04 -3.793180E-04  4.502838E-04  3.585219E-04  2.169260E-04 -3.303939E-04  2.537139E-05  6.861527E+02  9.310508E+00
        40   1  7.437064E-05 -1.966717E-04 -6.019307E-04 -3.898750E-04  7.680471E-04 -5.211544E-05 -5.010297E-04  4.632902E-04  2.237440E-04  2.984426E-04 -2.027456E-04 -5.342528E-05  6.930764E+02  1.057006E+01
        40   2  4.578972E-05 -1.637096E-04 -5.229609E-04 -5.237974E-04  7.443981E-04 -5.897658E-05 -1.918282E-04  6.287225E-04 -2.879355E-05  4.124638E-04 -3.506362E-04 -1.769575E-04  6.930764E+02  1.057006E+01
        40   3  1.477744E-04 -2.585121E-04 -5.954160E-04 -2.521235E-04  8.921934E-04 -8.512924E-05 -1.331122E-04  2.152901E-04  3.472600E-04  7.924210E-04 -3.943071E-04 -2.190073E-04  6.930764E+02  1.057006E+01
        40   4  9.429075E-05  2.068113E-04  3.806400E-04  4.966524E-04 -3.405173E-04 -1.553826E-04  2.784316E-04  1.755184E-06  8.182987E-05  1.057639E-03 -8.636489E-04  4.872106E-05  6.706709E+02  7.010632E+00
        41   1  3.073997E-05 -3.495760E-05  1.763358E-04  9.880136E-04 -2.426307E-04 -7.154146E-05  2.890972E-04 -1.369978E-04  1.737850E-05  1.121101E-03 -7.996508E-04 -4.110225E-05  6.568236E+02  5.439379E+00
        41   2  2.008915E-04 -5.025306E-05  9.483417E-05  9.395287E-04 -2.124018E-04 -1.491882E-05  3.610607E-04 -1.381036E-04 -1.781831E-04  9.864312E-04 -2.645088E-04  4.664682E-05  6.568236E+02  5.439379E+00
        41   3  4.921977E-05  8.299098E-05  4.758128E-04 -1.075820E-04 -3.291328E-04 -1.278337E-04  1.043466E-04  1.502560E-04  2.574694E-04  1.037216E-03 -4.035769E-04  9.896352E-05  6.792291E+02  8.201049E+00
        41   4 -1.159108E-04 -9.350376E-05  1.287442E-04  4.153738E-04 -8.845625E-05  3.040016E-07 -3.106309E-04 -2.040584E-04 -1.314740E-04  2.811200E-04 -1.610929E-04  4.775101E-05  6.568236E+02  5.439379E+00
        42   1  6.524949E-05  2.170843E-04  6.173715E-05 -6.324665E-04  4.299758E-04 -2.791094E-05  4.336158E-05  1.274622E-04  3.831826E-05 -3.857448E-04  2.683653E-04 -2.428997E-05  6.068960E+02  2.178639E+00
        42   2 -2.774652E-05  4.421944E-04  1.161692E-04 -4.852365E-04  5.630318E-04 -9.769965E-06 -1.739474E-05  2.600873E-04  6.673669E-05 -2.776676E-04  3.356712E-04 -1.084305E-05  6.068960E+02  2.178639E+00
        42   3 -2.755701E-04  4.360884E-04  2.486148E-04 -3.474182E-04  4.537328E-04 -6.414496E-05 -1.714054E-04  2.553882E-04  1.581129E-04 -1.849634E-04  2.816962E-04 -3.923189E-05  6.068960E+02  2.178639E+00
        42   4  3.890089E-04 -3.858727E-04 -2.316731E-04 -2.937799E-04  1.348720E-04  3.065350E-04  3.512633E-04 -2.742911E-04 -1.737980E-04 -3.581495E-04  2.631698E-04  2.288494E-04  6.292120E+02  3.279393E+00
        43   1  3.982864E-05  1.718465E-04  3.888252E-04 -6.686973E-04  5.792198E-04 -5.731008E-06  1.432109E-05  9.254926E-05  2.462452E-04 -3.885835E-04  3.452334E-04 -1.088597E-05  6.068960E+02  2.178639E+00
        43   2  4.052950E-04 -2.369456E-04 -3.893348E-04 -4.443159E-04  2.620201E-05  3.012644E-04  3.601401E-04 -1.613170E-04 -2.910897E-04 -4.355612E-04  2.190228E-04  2.214495E-04  6.292120E+02  3.279393E+00
        43   3  8.120332E-05  8.989141E-05  1.700512E-04 -5.706782E-04  5.388948E-04 -4.638665E-05  5.084826E-05  5.056963E-05  1.083215E-04 -3.335309E-04  3.490203E-04 -3.402424E-05  6.068960E+02  2.178639E+00
        43   4 -2.596232E-04  2.666793E-04  3.940589E-04 -4.754968E-04  3.727849E-04 -8.774080E-05 -1.639219E-04  1.556943E-04  2.470023E-04 -2.792931E-04  2.158076E-04 -5.289834E-05  6.068960E+02  2.178639E+00
        44   1  4.204698E-04 -2.183773E-04 -3.246011E-04 -1.206367E-04 -6.306451E-05  5.086571E-05  3.789129E-04 -1.761650E-04 -3.174671E-04 -3.350017E-04  3.835618E-05  6.010565E-05  6.430040E+02  4.222420E+00
        44   2  1.117303E-04  3.683213E-05 -2.521708E-04 -7.944942E-04 -5.139658E-05  1.888179E-04  6.883246E-05  2.933964E-05 -1.401072E-04 -5.536262E-04  1.172044E-05  1.255098E-04  6.206880E+02  2.805131E+00
        44   3 -2.069654E-04 -2.700031E-04 -2.853866E-04  2.692837E-04  6.784557E-05  6.459273E-05 -2.794890E-04 -2.348275E-04 -2.759816E-04  1.252153E-04  1.310381E-04  6.126757E-05  6.430040E+02  4.222420E+00
        44   4  4.346987E-04 -2.046132E-04 -2.127016E-04 -1.063685E-04  2.285638E-04 -1.706141E-05  4.031655E-04 -1.750096E-04 -1.439983E-04 -3.312251E-04  4.116999E-04 -1.794664E-05  6.430040E+02  4.222420E+00
        45   1  1.576036E-04 -4.139872E-04 -7.800545E-05 -2.143220E-05 -2.857031E-04  7.470824E-05  2.144901E-04 -3.120690E-04 -8.036126E-05 -5.984034E-05 -2.027109E-05  4.635249E-05  6.361080E+02  3.721152E+00
        45   2 -2.831863E-04  1.394547E-04 -6.188050E-06  3.781314E-06  4.745177E-04  1.460497E-04 -2.007698E-04  9.594426E-05  2.123413E-05 -1.861754E-05  3.375371E-04  8.661017E-05  6.137920E+02  2.472118E+00
        45   3  1.261624E-04  9.968487E-05 -1.310333E-04 -2.166515E-06  5.060383E-04  1.221067E-04  8.729174E-05  6.944940E-05 -7.414559E-05 -2.018580E-05  3.535091E-04  7.568683E-05  6.137920E+02  2.472118E+00
        45   4  1.926863E-04 -3.109846E-04 -5.308900E-05 -5.205296E-04 -2.435825E-04  1.223801E-04  2.509492E-04 -2.100339E-04 -6.734291E-05 -5.255055E-04  2.456538E-05  8.915093E-05  6.361080E+02  3.721152E+00
        46   1 -3.216103E-04 -1.887590E-04 -5.549271E-05  1.788724E-06 -7.650321E-05  9.189473E-05 -2.286612E-04 -1.025685E-04 -1.340371E-05 -2.267219E-05  5.357585E-08  5.207907E-05  6.206880E+02  2.805131E+00
        46   2 -1.764358E-05 -3.062246E-04 -1.303891E-04 -2.166025E-05  1.238709E-04  3.158494E-05 -5.257828E-05 -2.658519E-04 -7.385920E-05 -6.749126E-05  3.850168E-04  2.695218E-06  6.430040E+02  4.222420E+00
        46   3 -8.235243E-05 -3.514673E-04 -2.318869E-04 -9.124629E-05 -3.862770E-05  4.005037E-06 -1.726421E-04 -3.021876E-04 -2.460608E-04 -1.115363E-04  1.201061E-04 -3.209461E-05  6.430040E+02  4.222420E+00
        46   4  9.175861E-05 -2.104047E-04 -1.579203E-04 -4.127462E-04  1.381991E-04 -7.564459E-07  3.202862E-05 -1.579638E-04 -1.086160E-04 -4.902489E-04  4.349815E-04 -2.138835E-05  6.430040E+02  4.222420E+00
        47   1  8.960143E-06  1.203918E-04  3.071694E-04  7.076212E-04 -5.610476E-04  1.406186E-04  7.345411E-04 -1.394274E-04 -5.372996E-05  8.842791E-04 -6.499583E-04  2.312663E-04  6.706709E+02  7.010632E+00
        47   2  1.231826E-04 -3.638444E-05 -5.531058E-04 -4.455081E-04  8.699413E-04 -1.788255E-04  2.149752E-05  1.083581E-04  2.540066E-04  9.149175E-04 -4.622915E-04 -1.366622E-04  6.930764E+02  1.057006E+01
        47   3 -2.010176E-04  3.972325E-07 -1.311412E-04 -2.895073E-04  7.929463E-04  7.141005E-06  1.801643E-04  1.118508E-04  1.124561E-05  6.926288E-04 -2.825548E-04  1.359324E-05  6.930764E+02  1.057006E+01
        47   4 -1.128557E-04 -1.713140E-04 -1.715065E-04 -3.526002E-04  8.954567E-04 -2.301752E-04 -2.209469E-04  5.222778E-04 -3.549154E-07  7.192639E-04 -4.820007E-04 -2.156710E-04  6.930764E+02  1.057006E+01
        48   1 -5.100399E-05  7.146345E-05  3.249467E-04  2.356214E-04 -6.452721E-05  1.500146E-05 -3.858644E-04  3.706784E-05 -5.294459E-05  5.409135E-04  9.454181E-05  2.739206E-04  6.637473E+02  6.175232E+00
        48   2 -9.929086E-06  2.735803E-04 -3.909619E-05  1.326161E-05 -2.271954E-04  1.855143E-04 -3.222869E-04  3.707749E-04  3.976140E-04  2.301758E-04  2.935009E-05 -4.601618E-05  6.861527E+02  9.310508E+00
        48   3  8.699265E-05  1.983232E-04  1.409276E-05  1.967608E-04 -7.371526E-05  1.631606E-04  1.026614E-04  1.359331E-04  3.599202E-04  7.607059E-04 -2.287020E-04 -1.398114E-04  6.861527E+02  9.310508E+00
        48   4 -9.064744E-06 -5.319156E-06  2.894456E-04  5.697675E-04 -2.841934E-04 -2.535560E-04 -1.096824E-04 -7.970338E-05  8.593393E-05  8.817094E-04 -9.686468E-04 -2.778261E-05  6.637473E+02  6.175232E+00

 volume (element, volume) for set EALL and time  0.1300000E+02

        37  2.087500E+07
        38  2.079167E+07
        39  2.087500E+07
        40  2.087500E+07
        41  2.087500E+07
        42  2.079167E+07
        43  2.079167E+07
        44  2.079167E+07
        45  2.079167E+07
        46  2.079167E+07
        47  2.087500E+07
        48  2.087500E+07

 displacements (vx,vy,vz) for set NALL and time  0.1400000E+02

         1 -8.145939E+00  1.803894E+00 -3.104740E+00
         2 -3.991805E+00  1.730367E+00  0.000000E+00
         3 -3.801917E+00  0.000000E+00 -3.043425E+00
         4  0.000000E+00  0.000000E+00  0.000000E+00
         5  5.120396E+00 -1.620089E+01  1.279004E+01
         6  9.139603E+00 -1.644623E+01  0.000000E+00
         7  9.799745E+00  0.000000E+00  1.307077E+01
         8  1.398703E+01  0.000000E+00  0.000000E+00
         9 -2.391967E+00 -6.362732E+00  0.000000E+00
        10  2.168891E+00  0.000000E+00  0.000000E+00
        11 -6.546508E+00 -6.282192E+00  4.718323E+00
        12 -1.990943E+00  0.000000E+00  4.666559E+00
        13  1.271115E+01 -8.187039E+00  0.000000E+00
        14  1.955848E+00 -1.155813E+01  0.000000E+00
        15 -4.143122E+00 -2.004868E+00  0.000000E+00
        16 -1.042048E+00  8.800565E-01  0.000000E+00
        17  6.757252E+00  0.000000E+00  0.000000E+00
        18  1.107754E-01  0.000000E+00  0.000000E+00
        19  8.604102E+00 -8.111523E+00  1.284082E+01
        20 -1.919955E+00 -1.147606E+01  9.182991E+00
        21 -8.109061E+00 -2.137166E+00  6.746255E-01
        22 -4.987748E+00  9.486741E-01 -3.072875E+00
        23  2.553211E+00  0.000000E+00  9.233115E+00
        24 -3.823219E+00  0.000000E+00  5.447985E-01
        25 -5.166069E+00  1.755555E+00 -1.591867E+00
        26  7.966570E+00 -1.625256E+01  6.482425E+00
        27 -9.979261E-01  0.000000E+00 -1.540601E+00
        28  1.283308E+01  0.000000E+00  6.534596E+00
        29  5.591227E+00 -5.716230E+00  0.000000E+00
        30  1.075449E+00 -3.193258E+00  0.000000E+00
        31 -9.738489E-01 -1.028702E+00  0.000000E+00
        32  1.544091E+00 -5.707510E+00  9.178102E+00
        33 -4.920295E+00 -1.057541E+00  5.797622E-01
        34 -3.102357E+00 -3.163230E+00  4.689248E+00
        35  1.067294E+00 -1.149583E+01  4.562302E+00
        36 -5.127902E+00 -2.051217E+00  3.340650E-01
        37 -3.381372E+00 -6.347410E+00  2.380611E+00
        38  5.722894E+00  0.000000E+00  4.633364E+00
        39 -8.733459E-01  0.000000E+00  2.620900E-01
        40  1.164944E+00  0.000000E+00  2.351301E+00
        41 -2.125692E+00  9.476109E-01 -1.597213E+00
        42  1.152561E+01 -8.143189E+00  6.510882E+00
        43  1.458481E-02 -3.187151E+00  2.361920E+00
        44  4.573282E+00 -5.732462E+00  4.584602E+00
        45 -1.965681E+00 -1.042000E+00  3.116641E-01

 stresses (elem, integ.pnt.,sxx,syy,szz,sxy,sxz,syz) for set EALL and time  0.1400000E+02

        37   1  1.010100E+00  1.277800E+00  1.825301E+00 -5.115467E-02  4.425639E-02  2.035365E-02
        37   2  5.441698E-02  1.055061E+00  9.706627E-01 -1.151047E-02  4.213367E-01  2.301370E-03
        37   3  1.994657E+00  1.265014E+00  9.436246E-01  2.036916E-02 -1.014029E-01 -1.329001E-01
        37   4 -3.325795E-01  8.213653E-01  9.601722E-01 -2.724436E-01  5.716504E-01 -9.595378E-03
        38   1 -5.021742E-02 -3.397342E-01 -6.826412E-01  1.938020E-01 -1.146863E-01 -8.134468E-02
        38   2  1.364763E-01 -1.388734E-01 -6.616143E-01  2.944122E-01 -6.433739E-01  1.329839E-01
        38   3  4.486844E-01 -5.598618E-01 -4.951687E-01  1.630714E-01 -1.084547E-01 -6.996794E-02
        38   4  7.618228E-01 -2.384550E-01 -3.259602E-02  1.996265E-01 -1.287536E-01  1.857447E-02
        39   1 -1.238431E+00  1.473483E+00  6.034965E-01  2.461276E-02 -1.341599E-01 -1.011060E-01
        39   2 -2.124704E+00  1.186980E+00  6.383031E-01 -3.258474E-01 -8.094550E-02 -2.237768E-01
        39   3 -8.419031E-01  3.404151E-02  8.793308E-01  1.643051E-01  7.980252E-01 -2.408845E-01
        39   4  1.577115E+00 -1.004656E-01  4.862786E-01  4.541515E-02  6.916683E-01 -2.044845E-01
        40   1  3.394063E-01 -1.896270E+00 -2.902975E+00 -4.405613E-01  7.363793E-01 -2.771602E-02
        40   2 -1.748732E-01 -2.006879E+00 -2.312290E+00 -5.972961E-01  7.670292E-01  7.812601E-03
        40   3  3.923189E-02 -1.837179E+00 -3.098208E+00 -4.859552E-01  9.112822E-01 -5.166521E-04
        40   4  3.161370E-02  1.471666E+00  2.006249E+00 -2.316354E-01  2.682496E-01 -2.282994E-01
        41   1 -1.332720E+00  5.570474E-01  1.019896E+00  4.433282E-02  6.908665E-01 -5.678215E-02
        41   2 -4.114103E-01  7.083953E-01  1.785146E+00  1.504055E-01  2.159698E-02 -8.640823E-02
        41   3  2.746436E-01  3.223976E-01  1.703958E+00 -7.029640E-01 -1.179267E-01 -1.939672E-01
        41   4  1.583850E+00  1.153434E+00  2.098709E+00  2.769035E-01  7.755836E-02 -6.367434E-02
        42   1 -2.796863E-01 -1.204962E-01 -1.591684E-01  1.732398E-01 -1.706127E-01  7.689246E-02
        42   2  4.370586E-02 -1.237683E-01  1.900146E-02 -3.847993E-02 -8.024177E-02  4.662368E-02
        42   3  3.871768E-01 -1.061480E-01 -5.346826E-01 -1.629234E-01 -1.698843E-01  1.716613E-02
        42   4 -1.222859E+00 -4.584761E-01 -2.354618E-01  5.523985E-01 -6.443839E-01  4.121521E-04
        43   1  2.994092E-01  2.482862E-01 -7.753555E-01 -1.415933E-03 -8.780740E-02  7.196032E-02
        43   2 -1.168199E+00 -4.995117E-01 -2.271793E-01  4.086536E-01 -7.953615E-01  1.307087E-02
        43   3 -2.318995E-01 -2.717275E-02 -4.341147E-01  1.501502E-02 -3.393731E-01  6.813523E-02
        43   4  4.429819E-01 -7.128032E-02 -7.005422E-01  3.142826E-02  1.393166E-02  1.781699E-02
        44   1  5.870971E-02 -2.218540E-01  1.704679E-01  5.213884E-01 -2.230189E-01 -3.089873E-02
        44   2  1.008899E-02 -2.217943E-01 -7.515921E-01  1.006342E-01 -2.550849E-01  4.968877E-03
        44   3  1.016723E+00  6.026182E-02  2.969232E-01  2.841985E-01 -1.588776E-01 -4.231854E-03
        44   4 -1.880304E-01 -2.542067E-01 -5.956483E-01  5.462530E-01 -4.733377E-01  5.108267E-03
        45   1 -1.281053E+00 -6.138656E-01 -5.824298E-02  1.279538E-01 -6.540498E-01  4.574589E-02
        45   2  6.421707E-01 -2.999958E-01 -7.425742E-01  1.523741E-01 -3.003242E-01  3.057452E-02
        45   3 -3.934051E-01 -3.346615E-01 -3.416480E-01  1.363786E-01 -2.754725E-01 -3.300703E-04
        45   4 -1.418572E+00 -8.620520E-01 -7.035655E-03  2.951541E-01 -6.850405E-01  3.550362E-02
        46   1  1.064599E-01 -6.946600E-01 -6.614958E-01  1.326941E-01 -2.839340E-01  5.369796E-02
        46   2  2.968345E-01 -1.880038E-01 -4.603033E-01  1.113003E-01 -6.327258E-01  6.013798E-02
        46   3  1.133615E+00  2.775353E-02  5.055986E-01  6.550741E-02 -3.618824E-01  8.187405E-02
        46   4  4.490905E-01 -3.631234E-01 -3.666117E-01  2.654303E-01 -7.173765E-01  4.654357E-02
        47   1 -2.195009E+00  1.119075E+00  1.705113E+00  1.630599E-01 -1.692441E-01 -1.267437E-02
        47   2 -6.022145E-02 -7.295999E-01 -2.647856E+00 -6.966343E-01  9.154477E-01 -1.098577E-01
        47   3 -1.275242E+00 -4.832059E-01 -7.835586E-01 -4.858727E-01  7.868268E-01  1.694419E-03
        47   4 -5.234476E-01 -1.722685E+00 -9.946354E-01 -5.503046E-01  9.430532E-01 -1.289673E-01
        48   1  2.079365E+00  1.016049E+00  2.705404E+00 -2.312241E-01 -1.872566E-01 -2.624742E-01
        48   2  5.401285E-01  4.207778E-01 -7.871986E-01 -8.827462E-02 -2.341148E-01  1.962684E-01
        48   3  1.684238E-01  5.450544E-01 -5.212285E-01 -1.444481E-01  2.820245E-02  2.154392E-01
        48   4  8.176085E-01  7.248275E-01  1.616379E+00 -1.231363E-01  6.086533E-01 -3.202720E-01

 internal state variables (elem, integ.pnt.,values) for set EALL and time  0.1400000E+02

        37   1 -1.142605E-04  1.579503E-05  2.346201E-04  7.341207E-05 -1.944814E-04 -2.417235E-05 -2.966890E-04 -1.952915E-04 -6.800784E-05  1.632083E-04 -3.255765E-04 -5.753918E-05  6.568236E+02  5.892660E+00
        37   2 -1.366531E-04  5.607603E-05  2.276406E-04  1.473516E-04 -2.323445E-04 -1.323101E-05 -1.236985E-04 -1.523875E-04  1.024860E-04  2.192819E-04 -8.255974E-04 -2.105288E-05  6.568236E+02  5.892660E+00
        37   3  3.120269E-04  3.290305E-04  2.810970E-04  8.316592E-05 -1.994562E-04 -1.936236E-04 -3.295669E-04  2.648718E-04  3.715603E-04  1.400042E-04 -1.810023E-04 -6.901984E-05  6.792291E+02  8.884470E+00
        37   4 -1.676388E-04  1.076304E-04  2.166062E-04  3.534033E-04 -1.420870E-04 -4.404452E-05 -7.691543E-05 -3.639082E-05  6.596909E-05  8.169173E-04 -8.784973E-04 -5.017748E-05  6.568236E+02  5.892660E+00
        38   1  2.732664E-05 -8.013761E-05  4.628268E-05 -2.195029E-04  1.129202E-05 -2.393956E-04  1.347871E-05 -4.369794E-05  6.101491E-05 -1.887452E-04  3.188799E-05 -1.459661E-04  6.137920E+02  2.678128E+00
        38   2 -7.216543E-05 -7.361797E-05 -3.241046E-04 -9.824710E-05  1.873188E-04  2.380265E-04 -9.605764E-05 -6.202512E-05 -2.277224E-04 -2.412137E-04  4.993070E-04  1.550161E-04  6.361080E+02  4.031248E+00
        38   3 -7.201195E-05 -1.154835E-05  9.169682E-05 -2.277657E-04 -3.516573E-04 -1.354717E-04 -7.610911E-05  1.745494E-05  8.505910E-05 -1.878366E-04 -2.150141E-04 -7.748849E-05  6.137920E+02  2.678128E+00
        38   4 -2.032806E-04 -1.168337E-04 -3.605525E-04 -2.423003E-04 -2.612863E-04  3.173665E-04 -2.777281E-04 -7.076798E-05 -3.250769E-04 -3.277921E-04 -1.788680E-04  2.872724E-04  6.361080E+02  4.031248E+00
        39   1 -2.052757E-04  2.648726E-04  1.035252E-04  2.102247E-04 -6.024472E-04 -9.299900E-05  1.973181E-04 -1.029299E-04 -3.117609E-05  3.032421E-04 -7.732771E-04  8.040567E-06  6.637473E+02  6.689834E+00
        39   2 -4.393799E-04  3.078887E-04  1.357173E-04  3.110109E-04 -6.613717E-04 -1.813446E-04  1.087278E-04  2.038600E-05 -5.151014E-05  1.019063E-03 -9.513877E-04  5.724367E-05  6.637473E+02  6.689834E+00
        39   3 -2.955452E-04  1.362807E-04  3.681642E-04  3.855565E-04  9.521584E-04 -3.307390E-04 -1.143266E-05  3.834124E-04  1.847716E-04  4.670953E-04 -3.996846E-04 -7.390307E-06  6.861527E+02  1.008638E+01
        39   4  3.539481E-04  2.215820E-05  2.114487E-04  1.414891E-04  8.989471E-04 -2.899731E-04 -2.879214E-04  4.285342E-04  3.790939E-04  2.318714E-04 -1.353276E-04 -3.294183E-05  6.861527E+02  1.008638E+01
        40   1  2.273789E-04 -3.858618E-04 -8.838009E-04 -6.109364E-04  1.106075E-03 -5.859149E-05 -4.295263E-04  3.610667E-04  3.069832E-05  1.578852E-04  3.485386E-05 -6.291040E-05  6.930764E+02  1.145089E+01
        40   2  1.114033E-04 -3.818940E-04 -7.129125E-04 -8.248208E-04  1.111462E-03 -3.731048E-05 -1.593328E-04  5.191560E-04 -1.743610E-04  2.220010E-04 -1.044487E-04 -1.760005E-04  6.930764E+02  1.145089E+01
        40   3  2.359072E-04 -4.093205E-04 -9.055978E-04 -5.439559E-04  1.326299E-03 -6.257679E-05 -7.808521E-05  1.203857E-04  1.436582E-04  6.414974E-04 -1.015939E-04 -2.211424E-04  6.930764E+02  1.145089E+01
        40   4  1.761920E-05  3.021684E-04  5.217622E-04  2.760934E-04 -1.305810E-04 -2.476850E-04  2.574686E-04  5.617845E-05  1.688965E-04  1.017054E-03 -8.134525E-04 -3.928591E-08  6.706709E+02  7.594852E+00
        41   1 -1.227019E-04  2.709150E-05  2.589646E-04  8.534903E-04  9.466710E-05 -8.506221E-05  2.342267E-04 -1.163382E-04  6.001876E-05  1.138228E-03 -6.909159E-04 -5.097698E-05  6.568236E+02  5.892660E+00
        41   2  9.483549E-05  4.263193E-06  2.491602E-04  8.586644E-04 -1.700034E-04 -5.003100E-05  3.353287E-04 -1.212784E-04 -1.144611E-04  1.020185E-03 -2.631875E-04  3.260071E-05  6.568236E+02  5.892660E+00
        41   3  3.352185E-05  6.712485E-05  5.913758E-04 -5.117563E-04 -3.282817E-04 -2.177495E-04  1.032861E-04  1.525862E-04  3.510503E-04  8.692141E-04 -4.369287E-04  5.095577E-05  6.792291E+02  8.884470E+00
        41   4  4.897463E-06 -2.310044E-05  2.736908E-04  4.706199E-04 -4.114563E-05 -2.732257E-05 -2.736548E-04 -1.842715E-04 -6.893197E-05  3.298207E-04 -1.495354E-04  3.751678E-05  6.568236E+02  5.892660E+00
        42   1  5.138433E-05  2.011784E-04  5.357059E-05 -5.599366E-04  3.706638E-04 -1.166469E-05  4.027085E-05  1.277833E-04  3.713140E-05 -3.774919E-04  2.592450E-04 -1.934874E-05  6.068960E+02  2.360192E+00
        42   2 -2.356912E-05  4.088417E-04  1.101077E-04 -4.618772E-04  5.123248E-04 -3.833294E-07 -1.668342E-05  2.604070E-04  6.776818E-05 -2.826636E-04  3.331872E-04 -7.815344E-06  6.068960E+02  2.360192E+00
        42   3 -2.382292E-04  4.052302E-04  2.085813E-04 -3.561997E-04  3.930696E-04 -5.686296E-05 -1.657960E-04  2.564171E-04  1.508260E-04 -1.974894E-04  2.727476E-04 -3.842085E-05  6.068960E+02  2.360192E+00
        42   4  2.842797E-04 -3.630598E-04 -2.087135E-04 -1.132528E-04 -5.582348E-05  2.771339E-04  3.297187E-04 -2.819211E-04 -1.750654E-04 -3.055936E-04  2.004736E-04  2.308760E-04  6.292120E+02  3.552676E+00
        43   1  5.301645E-05  1.742709E-04  3.281260E-04 -6.267955E-04  5.260801E-04  8.170674E-06  2.003083E-05  9.807172E-05  2.355195E-04 -3.920615E-04  3.423361E-04 -6.164355E-06  6.068960E+02  2.360192E+00
        43   2  3.025870E-04 -2.315310E-04 -3.507768E-04 -2.889760E-04 -1.956913E-04  2.758786E-04  3.399849E-04 -1.690764E-04 -2.932291E-04 -3.981754E-04  1.407196E-04  2.246967E-04  6.292120E+02  3.552676E+00
        43   3  6.946830E-05  8.729190E-05  1.425597E-04 -5.318659E-04  4.409136E-04 -3.062511E-05  4.893861E-05  5.210138E-05  1.032991E-04 -3.354281E-04  3.292939E-04 -2.975535E-05  6.068960E+02  2.360192E+00
        43   4 -2.201530E-04  2.486430E-04  3.372781E-04 -4.395686E-04  3.518799E-04 -7.885224E-05 -1.571319E-04  1.566162E-04  2.377935E-04 -2.796145E-04  2.186076E-04 -5.216511E-05  6.068960E+02  2.360192E+00
        44   1  3.737855E-04 -2.109733E-04 -2.695630E-04  7.478097E-05 -1.326027E-04  3.390483E-05  3.840926E-04 -1.849790E-04 -3.145581E-04 -2.703036E-04  9.749072E-06  5.661871E-05  6.430040E+02  4.574288E+00
        44   2  1.108416E-04  2.823428E-05 -2.699108E-04 -7.051800E-04 -1.081131E-04  1.744417E-04  7.242815E-05  2.757872E-05 -1.552276E-04 -5.497514E-04 -1.019937E-05  1.270190E-04  6.206880E+02  3.038892E+00
        44   3 -1.087624E-04 -2.472622E-04 -2.394065E-04  3.345404E-04  4.365026E-06  5.520294E-05 -2.546870E-04 -2.407852E-04 -2.742999E-04  1.631313E-04  1.115312E-04  6.125677E-05  6.430040E+02  4.574288E+00
        44   4  3.768932E-04 -1.896022E-04 -2.278596E-04  9.581565E-05  3.669736E-05 -1.318171E-05  4.050513E-04 -1.803325E-04 -1.607168E-04 -2.633149E-04  3.539796E-04 -1.743493E-05  6.430040E+02  4.574288E+00
        45   1  6.069980E-05 -3.967112E-04 -5.432072E-05  2.045574E-05 -4.568658E-04  8.075763E-05  1.868769E-04 -3.250647E-04 -7.544563E-05 -4.573596E-05 -9.523744E-05  5.200217E-05  6.361080E+02  4.031248E+00
        45   2 -2.256521E-04  1.163998E-04 -4.344047E-05  3.585364E-05  3.765083E-04  1.419898E-04 -1.892143E-04  9.211515E-05  7.904972E-06 -7.189547E-06  3.176090E-04  8.968370E-05  6.137920E+02  2.678128E+00
        45   3  1.035667E-04  8.223806E-05 -1.327666E-04  2.693720E-05  4.110139E-04  1.132230E-04  8.321452E-05  6.637133E-05 -7.879905E-05 -9.988268E-06  3.356061E-04  7.632049E-05  6.137920E+02  2.678128E+00
        45   4  8.467799E-05 -3.208491E-04 -2.466236E-05 -3.727306E-04 -4.289318E-04  1.200663E-04  2.209622E-04 -2.280301E-04 -5.956096E-05 -4.963981E-04 -5.355904E-05  9.399950E-05  6.361080E+02  4.031248E+00
        46   1 -2.788730E-04 -2.048579E-04 -8.165363E-05  3.333290E-05 -1.380167E-04  9.717494E-05 -2.247573E-04 -1.148870E-04 -2.462701E-05 -1.141896E-05 -2.444686E-05  5.716894E-05  6.206880E+02  3.038892E+00
        46   2  1.448084E-05 -2.808091E-04 -1.513832E-04  1.952342E-05 -1.104977E-04  4.857822E-05 -4.182738E-05 -2.727456E-04 -8.836284E-05 -5.365803E-05  3.063264E-04  1.053821E-05  6.430040E+02  4.574288E+00
        46   3  7.282270E-06 -3.249416E-04 -1.771922E-04 -5.736582E-05 -1.592491E-04  3.193019E-05 -1.443897E-04 -3.110614E-04 -2.383916E-04 -1.040250E-04  7.421254E-05 -2.172992E-05  6.430040E+02  4.574288E+00
        46   4  1.228549E-04 -2.128351E-04 -1.679809E-04 -2.703179E-04 -1.272674E-04  1.548832E-05  4.817001E-05 -1.699336E-04 -1.205948E-04 -4.602089E-04  3.457387E-04 -1.552156E-05  6.430040E+02  4.574288E+00
        47   1 -3.000945E-04  2.357759E-04  4.716165E-04  6.578945E-04 -5.430279E-04  1.065012E-04  6.175754E-04 -8.493400E-05  3.579607E-05  9.272374E-04 -6.921744E-04  2.305692E-04  6.706709E+02  7.594852E+00
        47   2  1.638158E-04 -7.700885E-05 -8.243644E-04 -8.411044E-04  1.313080E-03 -2.119325E-04  5.412871E-05  8.717900E-05  7.167955E-05  6.966485E-04 -1.688709E-04 -1.735979E-04  6.930764E+02  1.145089E+01
        47   3 -3.215271E-04 -2.734191E-05 -1.832383E-04 -5.710980E-04  1.161523E-03  6.480413E-06  1.050601E-04  1.007186E-04 -2.705762E-05  5.409039E-04 -2.935379E-05  1.426877E-05  6.930764E+02  1.145089E+01
        47   4 -1.004603E-04 -3.659074E-04 -2.359417E-04 -6.649688E-04  1.352062E-03 -2.635933E-04 -2.308345E-04  4.212203E-04 -4.895706E-05  5.468072E-04 -1.797848E-04 -2.595051E-04  6.930764E+02  1.145089E+01
        48   1  1.168446E-04  8.914566E-05  5.121747E-04  8.302770E-05 -1.436435E-04 -1.142263E-04 -3.267193E-04  4.921938E-05  4.245281E-05  5.017272E-04  5.983864E-05  2.265145E-04  6.637473E+02  6.689834E+00
        48   2  8.035084E-05  2.743957E-04 -1.693245E-04 -4.931993E-05 -3.290442E-04  2.721355E-04 -2.877484E-04  4.028821E-04  3.415862E-04  2.069751E-04 -3.731146E-05  9.782634E-06  6.861527E+02  1.008638E+01
        48   3  9.025709E-05  2.379428E-04 -8.361048E-05  5.150245E-05 -3.675263E-05  2.680542E-04  1.140589E-04  1.746380E-04  3.229307E-04  7.261380E-04 -2.226532E-04 -7.938574E-05  6.861527E+02  1.008638E+01
        48   4  4.087325E-05  3.275413E-05  3.895998E-04  4.111937E-04  5.902725E-05 -3.640041E-04 -9.161488E-05 -6.580582E-05  1.458745E-04  8.660243E-04 -8.615682E-04 -8.882596E-05  6.637473E+02  6.689834E+00

 volume (element, volume) for set EALL and time  0.1400000E+02

        37  2.087500E+07
        38  2.079167E+07
        39  2.087500E+07
        40  2.087500E+07
        41  2.087500E+07
        42  2.079167E+07
        43  2.079167E+07
        44  2.079167E+07
        45  2.079167E+07
        46  2.079167E+07
        47  2.087500E+07
        48  2.087500E+07

 displacements (vx,vy,vz) for set NALL and time  0.1500000E+02

         1 -8.326133E+00  1.368440E+00 -2.630776E+00
         2 -4.146961E+00  1.318433E+00  0.000000E+00
         3 -3.899696E+00  0.000000E+00 -2.592754E+00
         4  0.000000E+00  0.000000E+00  0.000000E+00
         5  6.678435E+00 -1.651314E+01  1.263082E+01
         6  1.043011E+01 -1.680200E+01  0.000000E+00
         7  1.124716E+01  0.000000E+00  1.295833E+01
         8  1.503462E+01  0.000000E+00  0.000000E+00
         9 -1.913673E+00 -7.144021E+00  0.000000E+00
        10  2.682683E+00  0.000000E+00  0.000000E+00
        11 -6.032291E+00 -7.069372E+00  5.487568E+00
        12 -1.420253E+00  0.000000E+00  5.421361E+00
        13  1.382143E+01 -8.373330E+00  0.000000E+00
        14  2.890129E+00 -1.226613E+01  0.000000E+00
        15 -4.042071E+00 -2.610325E+00  0.000000E+00
        16 -1.073959E+00  6.682064E-01  0.000000E+00
        17  7.596849E+00  0.000000E+00  0.000000E+00
        18  3.275654E-01  0.000000E+00  0.000000E+00
        19  9.986938E+00 -8.311851E+00  1.268900E+01
        20 -6.944331E-01 -1.212971E+01  9.639278E+00
        21 -8.013835E+00 -2.729553E+00  1.274896E+00
        22 -5.100976E+00  7.255645E-01 -2.611763E+00
        23  3.651422E+00  0.000000E+00  9.727340E+00
        24 -3.655514E+00  0.000000E+00  1.151660E+00
        25 -5.314164E+00  1.331401E+00 -1.345245E+00
        26  9.185632E+00 -1.657175E+01  6.463676E+00
        27 -1.003205E+00  0.000000E+00 -1.305609E+00
        28  1.394386E+01  0.000000E+00  6.502254E+00
        29  6.453761E+00 -6.055225E+00  0.000000E+00
        30  1.588520E+00 -3.580289E+00  0.000000E+00
        31 -7.710954E-01 -1.335187E+00  0.000000E+00
        32  2.663339E+00 -6.026143E+00  9.641233E+00
        33 -4.768487E+00 -1.358463E+00  1.185843E+00
        34 -2.542143E+00 -3.550284E+00  5.451702E+00
        35  2.044778E+00 -1.217043E+01  4.787004E+00
        36 -5.014433E+00 -2.653160E+00  6.434893E-01
        37 -2.885258E+00 -7.124631E+00  2.748368E+00
        38  6.630400E+00  0.000000E+00  4.896626E+00
        39 -6.569801E-01  0.000000E+00  5.677753E-01
        40  1.706360E+00  0.000000E+00  2.710466E+00
        41 -2.169250E+00  7.259070E-01 -1.352698E+00
        42  1.261679E+01 -8.342643E+00  6.492164E+00
        43  5.413325E-01 -3.573947E+00  2.733928E+00
        44  5.482420E+00 -6.076486E+00  4.826683E+00
        45 -1.763645E+00 -1.346008E+00  6.190925E-01

 stresses (elem, integ.pnt.,sxx,syy,szz,sxy,sxz,syz) for set EALL and time  0.1500000E+02

        37   1  1.394685E+00  1.685285E+00  2.298020E+00 -7.857102E-02  8.590294E-02  3.077384E-02
        37   2  1.314077E-01  1.363262E+00  1.156954E+00 -3.585566E-02  5.946519E-01  5.027519E-03
        37   3  2.499825E+00  1.452314E+00  1.035284E+00  1.525283E-02 -1.113182E-01 -1.569960E-01
        37   4 -3.690191E-01  1.019875E+00  1.148120E+00 -4.125845E-01  7.826857E-01 -6.440837E-03
        38   1 -7.778374E-02 -3.818204E-01 -8.901113E-01  2.772439E-01 -1.464719E-01 -6.694979E-02
        38   2  2.693823E-01 -8.551434E-02 -6.310590E-01  3.948838E-01 -8.567812E-01  1.390688E-01
        38   3  6.072070E-01 -7.027195E-01 -6.827515E-01  2.391127E-01 -8.534335E-02 -6.802122E-02
        38   4  1.171053E+00 -1.673248E-01  2.219169E-01  2.917230E-01 -1.300768E-01 -1.952201E-02
        39   1 -1.581326E+00  1.829461E+00  7.421360E-01  2.884201E-03 -9.493896E-02 -1.235647E-01
        39   2 -2.628665E+00  1.433661E+00  7.882377E-01 -4.872634E-01 -1.453832E-02 -2.772546E-01
        39   3 -1.051124E+00 -7.914095E-02  9.983499E-01  1.715658E-01  9.954332E-01 -2.922372E-01
        39   4  1.960243E+00 -2.515911E-01  4.766267E-01  4.125276E-02  8.499720E-01 -2.467172E-01
        40   1  5.047592E-01 -2.379297E+00 -3.535173E+00 -5.438341E-01  8.935286E-01 -3.034476E-02
        40   2 -1.874062E-01 -2.557487E+00 -2.785252E+00 -7.377701E-01  9.384773E-01  1.886993E-02
        40   3  5.571136E-02 -2.267552E+00 -3.805931E+00 -6.244316E-01  1.113304E+00  1.115824E-02
        40   4 -7.395551E-02  1.741058E+00  2.358728E+00 -3.622547E-01  3.907677E-01 -2.780025E-01
        41   1 -1.731169E+00  7.108670E-01  1.203933E+00 -5.946353E-02  9.084329E-01 -6.370272E-02
        41   2 -6.452699E-01  9.039817E-01  2.212273E+00  8.039550E-02  5.263763E-02 -1.083796E-01
        41   3  2.713234E-01  3.165397E-01  1.950417E+00 -9.148915E-01 -1.135267E-01 -2.393286E-01
        41   4  2.081817E+00  1.525783E+00  2.628185E+00  3.045820E-01  1.096304E-01 -8.122927E-02
        42   1 -4.230029E-01 -3.167114E-01 -2.708469E-01  3.043515E-01 -2.713336E-01  9.826929E-02
        42   2  4.188418E-03 -4.748700E-01 -1.048659E-01  2.340404E-02 -1.794920E-01  5.880411E-02
        42   3  5.836956E-01 -4.344546E-01 -8.436813E-01 -1.489986E-01 -2.739182E-01  3.040185E-02
        42   4 -1.686233E+00 -3.557633E-01 -1.588721E-01  7.232752E-01 -8.171928E-01 -3.756432E-02
        43   1  2.689108E-01  1.304211E-01 -1.240421E+00  9.585833E-02 -1.910493E-01  8.921172E-02
        43   2 -1.627470E+00 -4.801864E-01 -7.477698E-02  5.639230E-01 -9.908699E-01 -2.127624E-02
        43   3 -3.735204E-01 -1.281585E-01 -6.683669E-01  1.017475E-01 -4.937700E-01  9.020070E-02
        43   4  6.436741E-01 -2.921093E-01 -1.127945E+00  1.074760E-01 -3.727609E-02  3.464700E-02
        44   1 -1.148815E-01 -1.622523E-01  3.764044E-01  6.707689E-01 -2.728846E-01 -4.498166E-02
        44   2 -3.550846E-02 -2.840078E-01 -7.945864E-01  2.286829E-01 -3.079080E-01 -1.811602E-02
        44   3  1.453615E+00  2.824115E-01  5.805806E-01  3.259591E-01 -2.074342E-01 -1.321715E-02
        44   4 -4.452708E-01 -2.239614E-01 -6.512050E-01  7.007934E-01 -6.242316E-01  8.338927E-03
        45   1 -1.639365E+00 -5.326771E-01 -3.437026E-03  1.627056E-01 -7.829606E-01  4.784879E-02
        45   2  9.622610E-01 -4.311029E-01 -8.945066E-01  1.867257E-01 -4.341633E-01  1.766591E-02
        45   3 -5.626768E-01 -4.811116E-01 -3.624708E-01  1.679055E-01 -4.077171E-01 -1.705989E-02
        45   4 -1.845498E+00 -9.086837E-01  3.230137E-02  4.333657E-01 -8.267202E-01  2.924260E-02
        46   1  3.601845E-01 -7.013093E-01 -7.329919E-01  1.634899E-01 -3.405205E-01  5.415307E-02
        46   2  4.272746E-01 -4.358221E-02 -4.726965E-01  1.428531E-01 -8.113346E-01  7.167044E-02
        46   3  1.531507E+00  2.711229E-01  8.079021E-01  9.346809E-02 -4.507570E-01  1.022602E-01
        46   4  5.482840E-01 -3.274198E-01 -3.599520E-01  3.847719E-01 -9.195827E-01  5.855361E-02
        47   1 -2.903390E+00  1.350080E+00  2.026450E+00  1.250447E-01 -1.512020E-01 -3.333599E-02
        47   2 -9.359669E-02 -9.151580E-01 -3.244580E+00 -8.838626E-01  1.122255E+00 -1.243744E-01
        47   3 -1.581587E+00 -6.170448E-01 -9.556965E-01 -6.195523E-01  9.588828E-01  1.265851E-03
        47   4 -5.945818E-01 -2.189519E+00 -1.206206E+00 -6.978455E-01  1.156693E+00 -1.431393E-01
        48   1  2.665873E+00  1.241014E+00  3.300952E+00 -3.259612E-01 -2.334370E-01 -3.398971E-01
        48   2  7.005802E-01  3.907773E-01 -1.061188E+00 -1.199427E-01 -2.829892E-01  2.381389E-01
        48   3  1.449051E-01  5.884925E-01 -7.403531E-01 -2.192003E-01  4.775449E-02  2.671886E-01
        48   4  1.029998E+00  9.073140E-01  1.920507E+00 -2.266941E-01  8.173789E-01 -3.821165E-01

 internal state variables (elem, integ.pnt.,values) for set EALL and time  0.1500000E+02

        37   1 -2.143372E-05  1.197080E-04  3.781622E-04  2.769500E-05 -1.265182E-04 -7.024878E-06 -2.699875E-04 -1.556474E-04  1.199275E-06  1.512211E-04 -3.135493E-04 -5.281482E-05  6.568236E+02  6.345942E+00
        37   2 -1.390886E-04  1.578253E-04  2.835689E-04  1.086165E-04  6.305613E-05 -8.987226E-06 -1.338779E-04 -1.108124E-04  1.386975E-04  2.149051E-04 -7.317163E-04 -2.037566E-05  6.568236E+02  6.345942E+00
        37   3  5.257325E-04  3.783398E-04  2.815554E-04  7.403134E-05 -2.232041E-04 -2.465889E-04 -2.146262E-04  3.176967E-04  4.005048E-04  1.449670E-04 -2.106383E-04 -1.094077E-04  6.792291E+02  9.567891E+00
        37   4 -2.077390E-04  1.760039E-04  2.854034E-04  1.182540E-04  2.210360E-04 -3.998272E-05 -1.031790E-04 -3.705462E-06  1.062085E-04  7.536182E-04 -7.533518E-04 -5.165929E-05  6.568236E+02  6.345942E+00
        38   1  3.072224E-05 -8.507417E-05  3.549360E-06 -1.442131E-04 -2.079340E-05 -2.361146E-04  1.551926E-05 -4.791109E-05  4.737137E-05 -1.689631E-04  2.092037E-05 -1.521939E-04  6.137920E+02  2.884137E+00
        38   2 -3.842991E-05 -6.742341E-05 -3.342299E-04  3.528653E-05 -9.988444E-05  2.550737E-04 -8.724777E-05 -6.321054E-05 -2.464219E-04 -1.976402E-04  4.044754E-04  1.722138E-04  6.361080E+02  4.341344E+00
        38   3 -2.864627E-05 -4.273327E-05  5.302901E-05 -1.599530E-04 -3.439754E-04 -1.400536E-04 -6.303625E-05  6.100320E-06  7.425034E-05 -1.709464E-04 -2.231529E-04 -8.328350E-05  6.137920E+02  2.884137E+00
        38   4 -1.019372E-04 -1.295164E-04 -3.154267E-04 -1.249233E-04 -2.730186E-04  2.763190E-04 -2.506355E-04 -8.076489E-05 -3.255521E-04 -2.967317E-04 -1.952299E-04  2.872125E-04  6.361080E+02  4.341344E+00
        39   1 -3.777153E-04  4.248333E-04  1.621181E-04  1.747928E-04 -5.428665E-04 -1.366478E-04  1.166996E-04 -2.240839E-05 -1.180235E-06  3.061267E-04 -7.973105E-04 -1.552834E-05  6.637473E+02  7.204437E+00
        39   2 -6.760999E-04  4.343801E-04  2.166704E-04  2.024914E-05 -5.524084E-04 -2.840260E-04 -1.408601E-05  9.164494E-05 -1.063098E-05  9.337646E-04 -9.614044E-04  4.683372E-06  6.637473E+02  7.204437E+00
        39   3 -3.985894E-04  9.181110E-05  4.537953E-04  4.066241E-04  1.389852E-03 -4.468293E-04 -8.650778E-05  3.816646E-04  2.613994E-04  5.202186E-04 -1.160205E-04 -9.171202E-05  6.861527E+02  1.086226E+01
        39   4  5.503169E-04 -7.434749E-05  1.939935E-04  1.345827E-04  1.251533E-03 -3.852697E-04 -1.691653E-04  3.929551E-04  3.967593E-04  2.455793E-04  1.085075E-04 -1.043066E-04  6.861527E+02  1.086226E+01
        40   1  3.937598E-04 -5.908860E-04 -1.187618E-03 -8.494728E-04  1.470111E-03 -6.528149E-05 -3.324494E-04  2.275050E-04 -2.083746E-04 -1.887581E-05  3.275251E-04 -7.333598E-05  6.930764E+02  1.233173E+01
        40   2  1.826392E-04 -6.187740E-04 -9.169635E-04 -1.149557E-03  1.507402E-03 -1.322266E-05 -1.159161E-04  3.732731E-04 -3.506678E-04 -1.772752E-05  2.017973E-04 -1.712093E-04  6.930764E+02  1.233173E+01
        40   3  3.311995E-04 -5.721748E-04 -1.240391E-03 -8.605118E-04  1.794059E-03 -3.736741E-05 -8.546927E-06  7.330539E-07 -1.107796E-04  4.421129E-04  2.619469E-04 -2.192316E-04  6.930764E+02  1.233173E+01
        40   4 -6.807158E-05  4.064121E-04  6.754943E-04  2.705584E-05  1.054031E-04 -3.490776E-04  2.263618E-04  1.223295E-04  2.731131E-04  9.463242E-04 -7.349662E-04 -6.033777E-05  6.706709E+02  8.179071E+00
        41   1 -2.956051E-04  9.733225E-05  3.503794E-04  6.936583E-04  4.754783E-04 -9.950103E-05  1.617174E-04 -8.842626E-05  1.115288E-04  1.136830E-03 -5.431348E-04 -6.211022E-05  6.568236E+02  6.345942E+00
        41   2 -2.649676E-05  6.618341E-05  4.222158E-04  7.591074E-04 -1.204377E-04 -8.937207E-05  2.967276E-04 -9.800447E-05 -3.331177E-05  1.041512E-03 -2.563279E-04  1.460161E-05  6.568236E+02  6.345942E+00
        41   3  1.582316E-05  4.893885E-05  7.155826E-04 -9.572099E-04 -3.248075E-04 -3.157923E-04  9.984198E-05  1.523916E-04  4.598149E-04  6.438168E-04 -4.691744E-04 -9.410406E-06  6.792291E+02  9.567891E+00
        41   4  1.416688E-04  5.718369E-05  4.358223E-04  5.293166E-04  1.297592E-05 -5.839807E-05 -2.225535E-04 -1.560384E-04  9.827373E-06  3.835520E-04 -1.322385E-04  2.412716E-05  6.568236E+02  6.345942E+00
        42   1  3.426682E-05  1.794799E-04  4.318255E-05 -4.661692E-04  2.953226E-04  7.716579E-06  3.566209E-05  1.256396E-04  3.494312E-05 -3.598160E-04  2.428884E-04 -1.286592E-05  6.068960E+02  2.541745E+00
        42   2 -1.826953E-05  3.635251E-04  1.014459E-04 -4.276785E-04  4.452280E-04  1.076771E-05 -1.546480E-05  2.556224E-04  6.772258E-05 -2.832216E-04  3.235743E-04 -3.913409E-06  6.068960E+02  2.541745E+00
        42   3 -1.906703E-04  3.629290E-04  1.583290E-04 -3.615031E-04  3.157965E-04 -4.743903E-05 -1.555864E-04  2.525923E-04  1.388654E-04 -2.090338E-04  2.563223E-04 -3.666033E-05  6.068960E+02  2.541745E+00
        42   4  1.591376E-04 -3.322997E-04 -1.796335E-04  9.837217E-05 -2.770586E-04  2.396448E-04  2.965862E-04 -2.857747E-04 -1.732038E-04 -2.345258E-04  1.190491E-04  2.288063E-04  6.292120E+02  3.825958E+00
        43   1  6.783226E-05  1.746731E-04  2.517490E-04 -5.682651E-04  4.559002E-04  2.453923E-05  2.667029E-05  1.029506E-04  2.176430E-04 -3.885661E-04  3.320154E-04 -1.992982E-07  6.068960E+02  2.541745E+00
        43   2  1.795634E-04 -2.225007E-04 -3.019540E-04 -1.044522E-04 -4.514867E-04  2.430411E-04  3.083594E-04 -1.753207E-04 -2.901187E-04 -3.439931E-04  4.120864E-05  2.242396E-04  6.292120E+02  3.825958E+00
        43   3  5.460102E-05  8.295507E-05  1.080605E-04 -4.783366E-04  3.188626E-04 -1.154959E-05  4.561098E-05  5.295293E-05  9.507062E-05 -3.311067E-04  2.984589E-04 -2.389526E-05  6.068960E+02  2.541745E+00
        43   4 -1.703448E-04  2.237508E-04  2.653946E-04 -3.908554E-04  3.221515E-04 -6.720798E-05 -1.456417E-04  1.546424E-04  2.217424E-04 -2.744736E-04  2.177436E-04 -5.022339E-05  6.068960E+02  2.541745E+00
        44   1  3.160539E-04 -2.001984E-04 -2.034664E-04  2.991283E-04 -2.112171E-04  1.402235E-05  3.827958E-04 -1.921773E-04 -3.047283E-04 -1.847901E-04 -2.582210E-05  5.117580E-05  6.430040E+02  4.926156E+00
        44   2  1.083693E-04  1.772406E-05 -2.875170E-04 -5.913650E-04 -1.730699E-04  1.554637E-04  7.543097E-05  2.483843E-05 -1.709215E-04 -5.340583E-04 -3.702783E-05  1.263925E-04  6.206880E+02  3.272653E+00
        44   3  5.279687E-06 -2.184542E-04 -1.840553E-04  4.064318E-04 -6.853196E-05  4.376127E-05 -2.189516E-04 -2.433386E-04 -2.667882E-04  2.068979E-04  8.525560E-05  6.000515E-05  6.430040E+02  4.926156E+00
        44   4  3.063829E-04 -1.703441E-04 -2.428232E-04  3.279432E-04 -1.851443E-04 -8.618757E-06  3.992718E-04 -1.833202E-04 -1.781634E-04 -1.738642E-04  2.752509E-04 -1.647036E-05  6.430040E+02  4.926156E+00
        45   1 -5.190248E-05 -3.723497E-04 -2.641046E-05  6.879207E-05 -6.500156E-04  8.676808E-05  1.491051E-04 -3.347040E-04 -6.790702E-05 -2.736205E-05 -1.860774E-04  5.791872E-05  6.361080E+02  4.341344E+00
        45   2 -1.548301E-04  8.753172E-05 -8.675703E-05  7.309634E-05  2.561160E-04  1.353146E-04 -1.711977E-04  8.552462E-05 -8.712074E-06  7.051316E-06  2.867634E-04  9.170961E-05  6.137920E+02  2.884137E+00
        45   3  7.567040E-05  6.039893E-05 -1.330509E-04  6.081408E-05  2.937119E-04  1.012489E-04  7.657085E-05  6.120596E-05 -8.299494E-05  2.790472E-06  3.069148E-04  7.559018E-05  6.137920E+02  2.884137E+00
        45   4 -4.109102E-05 -3.286803E-04  8.400583E-06 -1.969611E-04 -6.387884E-04  1.159543E-04  1.795575E-04 -2.457515E-04 -4.878776E-05 -4.503450E-04 -1.491243E-04  9.809240E-05  6.361080E+02  4.341344E+00
        46   1 -2.252456E-04 -2.213030E-04 -1.115159E-04  6.982901E-05 -2.082789E-04  1.020739E-04 -2.154940E-04 -1.278919E-04 -3.807914E-05  2.695178E-06 -5.420416E-05  6.230840E-05  6.206880E+02  3.272653E+00
        46   2  5.123211E-05 -2.485676E-04 -1.738995E-04  6.683261E-05 -3.793637E-04  6.754140E-05 -2.770153E-05 -2.758181E-04 -1.045261E-04 -3.542759E-05  2.027439E-04  1.999284E-05  6.430040E+02  4.926156E+00
        46   3  1.102810E-04 -2.909126E-04 -1.125437E-04 -1.769097E-05 -2.964865E-04  6.362845E-05 -1.065554E-04 -3.158093E-04 -2.242214E-04 -9.262168E-05  1.592188E-05 -8.521960E-06  6.430040E+02  4.926156E+00
        46   4  1.572553E-04 -2.133298E-04 -1.777611E-04 -1.028772E-04 -4.317576E-04  3.397705E-05  6.715126E-05 -1.813276E-04 -1.330017E-04 -4.135698E-04  2.283196E-04 -7.982936E-06  6.430040E+02  4.926156E+00
        47   1 -6.433585E-04  3.629359E-04  6.517877E-04  5.968921E-04 -5.185098E-04  6.766491E-05  4.605392E-04 -1.585998E-05  1.456991E-04  9.615495E-04 -7.303382E-04  2.250895E-04  6.706709E+02  8.179071E+00
        47   2  2.075187E-04 -1.211043E-04 -1.116923E-03 -1.269814E-03  1.791006E-03 -2.469168E-04  9.335705E-05  5.924206E-05 -1.550144E-04  4.128496E-04  1.970252E-04 -2.156574E-04  6.930764E+02  1.233173E+01
        47   3 -4.518123E-04 -5.760520E-05 -2.393178E-04 -8.765654E-04  1.558991E-03  5.678840E-06  1.011932E-05  8.490982E-05 -7.383810E-05  3.424104E-04  2.841112E-04  1.480032E-05  6.930764E+02  1.233173E+01
        47   4 -8.623787E-05 -5.770347E-04 -3.052371E-04 -1.003290E-03  1.844866E-03 -2.985451E-04 -2.383504E-04  2.878297E-04 -1.080178E-04  3.226856E-04  1.972520E-04 -3.083654E-04  6.930764E+02  1.233173E+01
        48   1  3.048551E-04  1.085752E-04  7.191759E-04 -8.954082E-05 -2.316288E-04 -2.589607E-04 -2.470637E-04  6.339007E-05  1.597081E-04  4.432761E-04  1.570610E-05  1.633232E-04  6.637473E+02  7.204437E+00
        48   2  1.792730E-04  2.732201E-04 -3.122548E-04 -1.181272E-04 -4.392244E-04  3.659552E-04 -2.393045E-04  4.342969E-04  2.654066E-04  1.740422E-04 -1.190997E-04  7.849109E-05  6.861527E+02  1.086226E+01
        48   3  9.321669E-05  2.798267E-04 -1.911606E-04 -1.091163E-04  4.435719E-06  3.823647E-04  1.257151E-04  2.188412E-04  2.706969E-04  6.686212E-04 -2.106394E-04 -3.050442E-06  6.861527E+02  1.086226E+01
        48   4  9.689158E-05  7.534708E-05  4.993280E-04  2.292176E-04  4.450128E-04 -4.854407E-04 -6.741434E-05 -4.727600E-05  2.171305E-04  8.293256E-04 -7.119714E-04 -1.625095E-04  6.637473E+02  7.204437E+00

 volume (element, volume) for set EALL and time  0.1500000E+02

        37  2.087500E+07
        38  2.079167E+07
        39  2.087500E+07
        40  2.087500E+07
        41  2.087500E+07
        42  2.079167E+07
        43  2.079167E+07
        44  2.079167E+07
        45  2.079167E+07
        46  2.079167E+07
        47  2.087500E+07
        48  2.087500E+07

 displacements (vx,vy,vz) for set NALL and time  0.1600000E+02

         1 -8.436572E+00  9.264892E-01 -2.148275E+00
         2 -4.278967E+00  9.041826E-01  0.000000E+00
         3 -3.964943E+00  0.000000E+00 -2.137567E+00
         4  0.000000E+00  0.000000E+00  0.000000E+00
         5  8.252827E+00 -1.661507E+01  1.219896E+01
         6  1.165051E+01 -1.695128E+01  0.000000E+00
         7  1.264343E+01  0.000000E+00  1.257716E+01
         8  1.592479E+01  0.000000E+00  0.000000E+00
         9 -1.416693E+00 -7.889082E+00  0.000000E+00
        10  3.169173E+00  0.000000E+00  0.000000E+00
        11 -5.443889E+00 -7.821939E+00  6.212516E+00
        12 -8.184909E-01  0.000000E+00  6.130358E+00
        13  1.479694E+01 -8.457891E+00  0.000000E+00
        14  3.821130E+00 -1.287074E+01  0.000000E+00
        15 -3.917937E+00 -3.203228E+00  0.000000E+00
        16 -1.098651E+00  4.541788E-01  0.000000E+00
        17  8.366870E+00  0.000000E+00  0.000000E+00
        18  5.359318E-01  0.000000E+00  0.000000E+00
        19  1.132284E+01 -8.413155E+00  1.226513E+01
        20  6.159567E-01 -1.267338E+01  9.954537E+00
        21 -7.847983E+00 -3.306229E+00  1.855611E+00
        22 -5.170596E+00  4.979322E-01 -2.144295E+00
        23  4.766821E+00  0.000000E+00  1.008518E+01
        24 -3.455258E+00  0.000000E+00  1.741219E+00
        25 -5.424172E+00  9.028843E-01 -1.092542E+00
        26  1.033837E+01 -1.668113E+01  6.316366E+00
        27 -9.970699E-01  0.000000E+00 -1.066744E+00
        28  1.491953E+01  0.000000E+00  6.338930E+00
        29  7.262855E+00 -6.341009E+00  0.000000E+00
        30  2.086557E+00 -3.948571E+00  0.000000E+00
        31 -5.665161E-01 -1.635677E+00  0.000000E+00
        32  3.814177E+00 -6.288892E+00  9.964292E+00
        33 -4.574029E+00 -1.652328E+00  1.774146E+00
        34 -1.939823E+00 -3.918885E+00  6.169201E+00
        35  3.036122E+00 -1.273775E+01  4.940910E+00
        36 -4.864042E+00 -3.241599E+00  9.445096E-01
        37 -2.355833E+00 -7.865185E+00  3.091371E+00
        38  7.490281E+00  0.000000E+00  5.093814E+00
        39 -4.370830E-01  0.000000E+00  8.652764E-01
        40  2.236631E+00  0.000000E+00  3.043972E+00
        41 -2.194226E+00  4.998994E-01 -1.102346E+00
        42  1.358439E+01 -8.442662E+00  6.344637E+00
        43  1.067724E+00 -3.941994E+00  3.081983E+00
        44  6.356958E+00 -6.367905E+00  5.000202E+00
        45 -1.547801E+00 -1.643558E+00  9.180747E-01

 stresses (elem, integ.pnt.,sxx,syy,szz,sxy,sxz,syz) for set EALL and time  0.1600000E+02

        37   1  1.799632E+00  2.115287E+00  2.795780E+00 -1.076606E-01  1.302363E-01  4.184183E-02
        37   2  2.126352E-01  1.688085E+00  1.352233E+00 -6.177017E-02  7.780694E-01  7.943779E-03
        37   3  3.029117E+00  1.644794E+00  1.127055E+00  9.640246E-03 -1.212986E-01 -1.821310E-01
        37   4 -4.068219E-01  1.228654E+00  1.345346E+00 -5.609537E-01  1.005798E+00 -2.994137E-03
        38   1 -1.065106E-01 -4.260284E-01 -1.109370E+00  3.651799E-01 -1.800109E-01 -5.130530E-02
        38   2  4.102353E-01 -2.856775E-02 -5.964925E-01  5.009349E-01 -1.081682E+00  1.450890E-01
        38   3  7.738289E-01 -8.533687E-01 -8.817416E-01  3.191269E-01 -6.082460E-02 -6.568278E-02
        38   4  1.603212E+00 -9.120954E-02  4.926747E-01  3.891552E-01 -1.310179E-01 -6.021329E-02
        39   1 -1.941911E+00  2.203165E+00  8.876219E-01 -2.036730E-02 -5.239084E-02 -1.470696E-01
        39   2 -3.157702E+00  1.691713E+00  9.445834E-01 -6.580762E-01  5.650997E-02 -3.333638E-01
        39   3 -1.270600E+00 -2.016852E-01  1.120598E+00  1.786531E-01  1.202541E+00 -3.455818E-01
        39   4  2.361228E+00 -4.136157E-01  4.627877E-01  3.658764E-02  1.016008E+00 -2.907056E-01
        40   1  6.787932E-01 -2.884174E+00 -4.195571E+00 -6.515381E-01  1.057649E+00 -3.297118E-02
        40   2 -2.004815E-01 -3.133659E+00 -3.278572E+00 -8.841315E-01  1.117663E+00  3.065613E-02
        40   3  7.361340E-02 -2.716802E+00 -4.545790E+00 -7.693450E-01  1.324040E+00  2.361244E-02
        40   4 -1.849301E-01  2.021047E+00  2.725546E+00 -5.005844E-01  5.204429E-01 -3.300414E-01
        41   1 -2.150150E+00  8.730165E-01  1.396979E+00 -1.701302E-01  1.138100E+00 -7.082648E-02
        41   2 -8.925856E-01  1.110217E+00  2.662105E+00  4.963680E-03  8.579231E-02 -1.314326E-01
        41   3  2.665205E-01  3.079421E-01  2.204411E+00 -1.137925E+00 -1.082390E-01 -2.864434E-01
        41   4  2.606261E+00  1.918731E+00  3.185637E+00  3.329989E-01  1.436605E-01 -9.968276E-02
        42   1 -5.740296E-01 -5.242779E-01 -3.887780E-01  4.426766E-01 -3.777205E-01  1.206758E-01
        42   2 -3.802604E-02 -8.464276E-01 -2.359457E-01  8.896178E-02 -2.843965E-01  7.168673E-02
        42   3  7.909530E-01 -7.819344E-01 -1.169565E+00 -1.337920E-01 -3.837412E-01  4.442021E-02
        42   4 -2.174049E+00 -2.462493E-01 -7.716751E-02  9.030111E-01 -9.989153E-01 -7.786826E-02
        43   1  2.357961E-01  4.857405E-03 -1.731063E+00  1.989921E-01 -2.999407E-01  1.073063E-01
        43   2 -2.111019E+00 -4.584441E-01  8.692682E-02  7.276916E-01 -1.196096E+00 -5.772692E-02
        43   3 -5.228338E-01 -2.351459E-01 -9.155034E-01  1.936541E-01 -6.563871E-01  1.133272E-01
        43   4  8.552425E-01 -5.258026E-01 -1.579020E+00  1.878079E-01 -9.178533E-02  5.243204E-02
        44   1 -2.996610E-01 -9.788434E-02  5.958178E-01  8.282065E-01 -3.252138E-01 -5.993026E-02
        44   2 -8.405043E-02 -3.500302E-01 -8.391463E-01  3.644439E-01 -3.632059E-01 -4.250379E-02
        44   3  1.915284E+00  5.189359E-01  8.820775E-01  3.694613E-01 -2.586176E-01 -2.286086E-02
        44   4 -7.179986E-01 -1.909151E-01 -7.080934E-01  8.635218E-01 -7.834775E-01  1.168793E-02
        45   1 -2.016335E+00 -4.443761E-01  5.491773E-02  1.992949E-01 -9.181435E-01  4.993664E-02
        45   2  1.300015E+00 -5.702266E-01 -1.054375E+00  2.226918E-01 -5.753634E-01  3.909505E-03
        45   3 -7.411681E-01 -6.364643E-01 -3.840555E-01  2.009176E-01 -5.472193E-01 -3.473202E-02
        45   4 -2.295014E+00 -9.555267E-01  7.390601E-02  5.794004E-01 -9.753836E-01  2.242995E-02
        46   1  6.285786E-01 -7.074380E-01 -8.083615E-01  1.957369E-01 -3.997854E-01  5.447927E-02
        46   2  5.646458E-01  1.110702E-01 -4.841944E-01  1.760842E-01 -9.995268E-01  8.377620E-02
        46   3  1.950768E+00  5.307090E-01  1.128547E+00  1.229766E-01 -5.442511E-01  1.237348E-01
        46   4  6.521604E-01 -2.878949E-01 -3.513646E-01  5.108800E-01 -1.132720E+00  7.125048E-02
        47   1 -3.648102E+00  1.590656E+00  2.361318E+00  8.363753E-02 -1.310535E-01 -5.505299E-02
        47   2 -1.280392E-01 -1.109178E+00 -3.868125E+00 -1.079767E+00  1.338173E+00 -1.393130E-01
        47   3 -1.902088E+00 -7.572321E-01 -1.135702E+00 -7.595350E-01  1.138765E+00  7.782366E-04
        47   4 -6.680853E-01 -2.677899E+00 -1.427153E+00 -8.520470E-01  1.380075E+00 -1.575835E-01
        48   1  3.282637E+00  1.476857E+00  3.925950E+00 -4.262931E-01 -2.819173E-01 -4.214221E-01
        48   2  8.682582E-01  3.554142E-01 -1.352185E+00 -1.532880E-01 -3.336764E-01  2.819782E-01
        48   3  1.191925E-01  6.309670E-01 -9.738911E-01 -2.980613E-01  6.867884E-02  3.216953E-01
        48   4  1.253674E+00  1.098122E+00  2.238592E+00 -3.368256E-01  1.037646E+00 -4.469782E-01

 internal state variables (elem, integ.pnt.,values) for set EALL and time  0.1600000E+02

        37   1  8.234807E-05  2.355437E-04  5.363769E-04 -2.372875E-05 -4.957900E-05  1.233624E-05 -2.329190E-04 -1.045244E-04  8.559571E-05  1.340127E-04 -2.935773E-04 -4.610487E-05  6.568236E+02  6.799223E+00
        37   2 -1.408380E-04  2.708630E-04  3.441247E-04  6.445287E-05  3.932444E-04 -4.114852E-06 -1.439680E-04 -5.814087E-05  1.804229E-04  2.058841E-04 -6.048719E-04 -1.917707E-05  6.568236E+02  6.799223E+00
        37   3  7.574077E-04  4.300202E-04  2.800471E-04  6.345521E-05 -2.478314E-04 -3.032576E-04 -7.083575E-05  3.764887E-04  4.287324E-04  1.484351E-04 -2.430461E-04 -1.566544E-04  6.792291E+02  1.025131E+01
        37   4 -2.510814E-04  2.513731E-04  3.604087E-04 -1.457171E-04  6.258347E-04 -3.502035E-05 -1.333678E-04  3.621758E-05  1.534219E-04  6.636598E-04 -5.880894E-04 -5.253111E-05  6.568236E+02  6.799223E+00
        38   1  3.440392E-05 -8.989211E-05 -4.628505E-05 -5.510174E-05 -5.785100E-05 -2.295436E-04  1.776545E-05 -5.223468E-05  2.990515E-05 -1.419839E-04  7.209367E-06 -1.571602E-04  6.137920E+02  3.090147E+00
        38   2  4.160910E-07 -5.976194E-05 -3.426940E-04  1.878359E-04 -4.269555E-04  2.720478E-04 -7.502921E-05 -6.357953E-05 -2.649927E-04 -1.410114E-04  2.819363E-04  1.901767E-04  6.361080E+02  4.651440E+00
        38   3  2.206473E-05 -7.853369E-05  7.297865E-06 -7.948920E-05 -3.312939E-04 -1.437244E-04 -4.603507E-05 -7.844101E-06  5.975763E-05 -1.475025E-04 -2.292914E-04 -8.889854E-05  6.137920E+02  3.090147E+00
        38   4  1.459750E-05 -1.428590E-04 -2.611313E-04  1.057040E-05 -2.836367E-04  2.267425E-04 -2.133610E-04 -9.158857E-05 -3.206266E-04 -2.536903E-04 -2.117348E-04  2.821721E-04  6.361080E+02  4.651440E+00
        39   1 -5.669711E-04  6.001895E-04  2.262429E-04  1.340699E-04 -4.726767E-04 -1.841772E-04  1.647391E-05  7.622478E-05  3.540942E-05  3.042926E-04 -8.127660E-04 -4.391903E-05  6.637473E+02  7.719039E+00
        39   2 -9.346758E-04  5.722327E-04  3.050222E-04 -3.036347E-04 -4.274167E-04 -3.962441E-04 -1.633540E-04  1.769204E-04  3.926656E-05  8.136136E-04 -9.570014E-04 -5.937306E-05  6.637473E+02  7.719039E+00
        39   3 -5.089283E-04  4.220174E-05  5.446049E-04  4.272406E-04  1.860753E-03 -5.706901E-04 -1.764386E-04  3.727183E-04  3.500233E-04  5.756113E-04  2.316242E-04 -1.925933E-04  6.861527E+02  1.163813E+01
        39   4  7.618302E-04 -1.797733E-04  1.733948E-04  1.261743E-04  1.630263E-03 -4.870557E-04 -2.160744E-05  3.426374E-04  4.111540E-04  2.578910E-04  4.036421E-04 -1.893086E-04  6.861527E+02  1.163813E+01
        40   1  5.724456E-04 -8.104040E-04 -1.511681E-03 -1.103934E-03  1.858136E-03 -7.212335E-05 -2.084658E-04  6.105688E-05 -4.956840E-04 -2.335205E-04  6.778845E-04 -8.470518E-05  6.930764E+02  1.321257E+01
        40   2  2.589793E-04 -8.727883E-04 -1.133967E-03 -1.495804E-03  1.929972E-03  1.315855E-05 -6.104538E-05  1.892375E-04 -5.591110E-04 -3.089611E-04  5.710041E-04 -1.623163E-04  6.930764E+02  1.321257E+01
        40   3  4.331626E-04 -7.460313E-04 -1.597908E-03 -1.199719E-03  2.292621E-03 -9.659018E-06  7.624996E-05 -1.448360E-04 -4.185385E-04  1.918421E-04  6.996038E-04 -2.129881E-04  6.930764E+02  1.321257E+01
        40   4 -1.620361E-04  5.188364E-04  8.409425E-04 -2.488700E-04  3.660351E-04 -4.589926E-04  1.846064E-04  2.007168E-04  3.952424E-04  8.435636E-04 -6.264447E-04 -1.327533E-04  6.706709E+02  8.763290E+00
        41   1 -4.870154E-04  1.753899E-04  4.502129E-04  5.096652E-04  8.979881E-04 -1.147957E-04  7.060242E-05 -5.284517E-05  1.723687E-04  1.115614E-03 -3.540278E-04 -7.454121E-05  6.568236E+02  6.799223E+00
        41   2 -1.623902E-04  1.351796E-04  6.132270E-04  6.415493E-04 -6.395496E-05 -1.327275E-04  2.444861E-04 -6.790117E-05  6.624874E-05  1.049400E-03 -2.435365E-04 -7.557905E-06  6.568236E+02  6.799223E+00
        41   3 -3.716196E-06  2.847076E-05  8.475816E-04 -1.441312E-03 -3.187739E-04 -4.211731E-04  9.387166E-05  1.494495E-04  5.843171E-04  3.578212E-04 -5.000705E-04 -8.266023E-05  6.792291E+02  1.025131E+01
        41   4  2.936197E-04  1.469187E-04  6.144185E-04  5.912444E-04  7.365618E-05 -9.275500E-05 -1.565342E-04 -1.188477E-04  1.057031E-04  4.424668E-04 -1.088335E-04  7.410235E-06  6.568236E+02  6.799223E+00
        42   1  1.391052E-05  1.520012E-04  3.057797E-05 -3.512453E-04  2.039720E-04  3.021467E-05  2.945164E-05  1.208780E-04  3.169476E-05 -3.321682E-04  2.188666E-04 -4.762649E-06  6.068960E+02  2.723298E+00
        42   2 -1.186228E-05  3.062761E-04  9.020126E-05 -3.826861E-04  3.617945E-04  2.369854E-05 -1.371349E-05  2.454193E-04  6.653531E-05 -2.790629E-04  3.064056E-04  9.161213E-07  6.068960E+02  2.723298E+00
        42   3 -1.329190E-04  3.092126E-04  9.789152E-05 -3.633226E-04  2.219516E-04 -3.587035E-05 -1.405078E-04  2.436125E-04  1.219652E-04 -2.195000E-04  2.319820E-04 -3.389113E-05  6.068960E+02  2.723298E+00
        42   4  1.408370E-05 -2.938297E-04 -1.445861E-04  3.403912E-04 -5.281988E-04  1.942532E-04  2.512099E-04 -2.856116E-04 -1.680177E-04 -1.439254E-04  1.787376E-05  2.223756E-04  6.292120E+02  4.099241E+00
        43   1  8.426747E-05  1.730528E-04  1.597430E-04 -4.931293E-04  3.687809E-04  4.336802E-05  3.428070E-05  1.071308E-04  1.922066E-04 -3.776535E-04  3.138436E-04  7.073930E-06  6.068960E+02  2.723298E+00
        43   2  3.672621E-05 -2.099488E-04 -2.431514E-04  1.086486E-04 -7.404290E-04  2.029343E-04  2.646119E-04 -1.799358E-04 -2.814404E-04 -2.720373E-04 -8.062722E-05  2.198383E-04  6.292120E+02  4.099241E+00
        43   3  3.661648E-05  7.688058E-05  6.656944E-05 -4.101109E-04  1.728277E-04  1.081504E-05  4.078548E-05  5.307691E-05  8.345119E-05 -3.201737E-04  2.558910E-04 -1.636259E-05  6.068960E+02  2.723298E+00
        43   4 -1.102227E-04  1.920214E-04  1.784467E-04 -3.294207E-04  2.835749E-04 -5.281452E-05 -1.291788E-04  1.495930E-04  1.984517E-04 -2.635450E-04  2.129670E-04 -4.700055E-05  6.068960E+02  2.723298E+00
        44   1  2.476421E-04 -1.861585E-04 -1.266181E-04  5.514935E-04 -2.986001E-04 -8.706201E-06  3.745737E-04 -1.976207E-04 -2.875066E-04 -7.726852E-05 -6.872372E-05  4.365047E-05  6.430040E+02  5.278024E+00
        44   2  1.043416E-04  5.302426E-06 -3.050458E-04 -4.533437E-04 -2.461409E-04  1.319815E-04  7.779544E-05  2.105214E-05 -1.872042E-04 -5.057939E-04 -6.900861E-05  1.235038E-04  6.206880E+02  3.506414E+00
        44   3  1.346237E-04 -1.837643E-04 -1.196010E-04  4.847257E-04 -1.505418E-04  3.030254E-05 -1.716435E-04 -2.422355E-04 -2.530502E-04  2.567804E-04  5.182569E-05  5.741728E-05  6.430040E+02  5.278024E+00
        44   4  2.236195E-04 -1.469855E-04 -2.575800E-04  5.890227E-04 -4.360221E-04 -3.419006E-06  3.853219E-04 -1.838023E-04 -1.963232E-04 -6.165577E-05  1.742758E-04 -1.503383E-05  6.430040E+02  5.278024E+00
        45   1 -1.797698E-04 -3.410902E-04  5.601341E-06  1.234127E-04 -8.645976E-04  9.273922E-05  1.006020E-04 -3.407255E-04 -5.759391E-05 -4.478348E-06 -2.936120E-04  6.410018E-05  6.361080E+02  4.651440E+00
        45   2 -7.081195E-05  5.285426E-05 -1.361209E-04  1.154547E-04  1.135035E-04  1.260481E-04 -1.463422E-04  7.599469E-05 -2.879812E-05  2.424525E-05  2.443672E-04  9.261570E-05  6.137920E+02  3.090147E+00
        45   3  4.252604E-05  3.415492E-05 -1.319116E-04  9.941289E-05  1.543113E-04  8.622574E-05  6.721572E-05  5.381336E-05 -8.669752E-05  1.827960E-05  2.668112E-04  7.341512E-05  6.137920E+02  3.090147E+00
        45   4 -1.841303E-04 -3.345267E-04  4.595343E-05  6.013423E-06 -8.725284E-04  1.100792E-04  1.260873E-04 -2.631210E-04 -3.486082E-05 -3.863234E-04 -2.630435E-04  1.013589E-04  6.361080E+02  4.651440E+00
        46   1 -1.608896E-04 -2.381314E-04 -1.450944E-04  1.111923E-04 -2.871701E-04  1.065945E-04 -2.005475E-04 -1.416084E-04 -5.389492E-05  1.981351E-05 -8.948217E-05  6.748509E-05  6.206880E+02  3.506414E+00
        46   2  9.241146E-05 -2.096973E-04 -1.978694E-04  1.200666E-04 -6.816296E-04  8.841989E-05 -1.002921E-05 -2.747816E-04 -1.224043E-04 -1.255021E-05  7.285077E-05  3.114303E-05  6.430040E+02  5.278024E+00
        46   3  2.261417E-04 -2.495778E-04 -3.822782E-05  2.757192E-05 -4.498139E-04  9.899145E-05 -5.861747E-05 -3.161079E-04 -2.031298E-04 -7.709609E-05 -5.545009E-05  7.688671E-06  6.430040E+02  5.278024E+00
        46   4  1.948236E-04 -2.119273E-04 -1.872461E-04  8.872106E-05 -7.740617E-04  5.466067E-05  8.909686E-05 -1.920579E-04 -1.458166E-04 -3.493247E-04  8.110778E-05  1.327916E-06  6.430040E+02  5.278024E+00
        47   1 -1.018620E-03  5.010214E-04  8.466264E-04  5.250701E-04 -4.876835E-04  2.449886E-05  2.612826E-04  6.850086E-05  2.769522E-04  9.864027E-04 -7.639537E-04  2.145628E-04  6.706709E+02  8.763290E+00
        47   2  2.541473E-04 -1.683852E-04 -1.429119E-03 -1.728905E-03  2.300847E-03 -2.835744E-04  1.395294E-04  2.420462E-05 -4.282144E-04  6.025431E-05  6.388272E-04 -2.630059E-04  6.930764E+02  1.321257E+01
        47   3 -5.911101E-04 -9.018134E-05 -2.990903E-04 -1.203979E-03  1.983170E-03  4.731471E-06 -1.056398E-04  6.417686E-05 -1.295044E-04  9.477724E-05  6.607711E-04  1.516737E-05  6.930764E+02  1.321257E+01
        47   4 -7.032070E-05 -8.033131E-04 -3.790290E-04 -1.365315E-03  2.371085E-03 -3.348072E-04 -2.433071E-04  1.204827E-04 -1.780314E-04  4.438213E-05  6.527618E-04 -3.623641E-04  6.930764E+02  1.321257E+01
        48   1  5.119226E-04  1.296312E-04  9.449338E-04 -2.811783E-04 -3.279975E-04 -4.183882E-04 -1.457591E-04  7.966920E-05  2.999628E-04  3.643614E-04 -3.835673E-05  8.345760E-05  6.637473E+02  7.719039E+00
        48   2  2.862219E-04  2.699923E-04 -4.673082E-04 -1.927238E-04 -5.568572E-04  4.664938E-04 -1.761943E-04  4.647638E-04  1.678284E-04  1.308264E-04 -2.166352E-04  1.607559E-04  6.861527E+02  1.163813E+01
        48   3  9.597640E-05  3.236363E-04 -3.081945E-04 -2.839897E-04  4.971334E-05  5.055923E-04  1.376362E-04  2.686718E-04  2.022185E-04  5.868081E-04 -1.922236E-04  9.009095E-05  6.861527E+02  1.163813E+01
        48   4  1.587270E-04  1.221139E-04  6.181122E-04  2.490361E-05  8.716066E-04 -6.173470E-04 -3.671117E-05 -2.389557E-05  3.002450E-04  7.702100E-04 -5.173715E-04 -2.494850E-04  6.637473E+02  7.719039E+00

 volume (element, volume) for set EALL and time  0.1600000E+02

        37  2.087500E+07
        38  2.079167E+07
        39  2.087500E+07
        40  2.087500E+07
        41  2.087500E+07
        42  2.079167E+07
        43  2.079167E+07
        44  2.079167E+07
        45  2.079167E+07
        46  2.079167E+07
        47  2.087500E+07
        48  2.087500E+07

 displacements (vx,vy,vz) for set NALL and time  0.1700000E+02

         1 -8.476848E+00  4.779905E-01 -1.657159E+00
         2 -4.387670E+00  4.875790E-01  0.000000E+00
         3 -3.997446E+00  0.000000E+00 -1.677814E+00
         4  0.000000E+00  0.000000E+00  0.000000E+00
         5  9.843568E+00 -1.650547E+01  1.149253E+01
         6  1.280025E+01 -1.689287E+01  0.000000E+00
         7  1.398824E+01  0.000000E+00  1.192530E+01
         8  1.665662E+01  0.000000E+00  0.000000E+00
         9 -9.009148E-01 -8.597698E+00  0.000000E+00
        10  3.628273E+00  0.000000E+00  0.000000E+00
        11 -4.780922E+00 -8.539671E+00  6.892869E+00
        12 -1.854481E-01  0.000000E+00  6.793249E+00
        13  1.563688E+01 -8.440160E+00  0.000000E+00
        14  4.748773E+00 -1.337132E+01  0.000000E+00
        15 -3.770562E+00 -3.783520E+00  0.000000E+00
        16 -1.116083E+00  2.379491E-01  0.000000E+00
        17  9.067016E+00  0.000000E+00  0.000000E+00
        18  7.358423E-01  0.000000E+00  0.000000E+00
        19  1.261148E+01 -8.414920E+00  1.156727E+01
        20  2.011542E+00 -1.310652E+01  1.012791E+01
        21 -7.611098E+00 -3.867139E+00  2.416693E+00
        22 -5.196330E+00  2.657422E-01 -1.670406E+00
        23  5.899515E+00  0.000000E+00  1.030574E+01
        24 -3.222224E+00  0.000000E+00  2.313402E+00
        25 -5.495862E+00  4.699609E-01 -8.337052E-01
        26  1.142420E+01 -1.657953E+01  6.039626E+00
        27 -9.794392E-01  0.000000E+00 -8.239682E-01
        28  1.575924E+01  0.000000E+00  6.043719E+00
        29  8.018253E+00 -6.573267E+00  0.000000E+00
        30  2.569510E+00 -4.297990E+00  0.000000E+00
        31 -3.600937E-01 -1.930143E+00  0.000000E+00
        32  4.996761E+00 -6.495480E+00  1.014641E+01
        33 -4.336650E+00 -1.939104E+00  2.344596E+00
        34 -1.295144E+00 -4.268916E+00  6.841449E+00
        35  4.041292E+00 -1.319721E+01  5.023591E+00
        36 -4.676504E+00 -3.816476E+00  1.237086E+00
        37 -1.792923E+00 -8.568849E+00  3.409455E+00
        38  8.302312E+00  0.000000E+00  5.224532E+00
        39 -2.136149E-01  0.000000E+00  1.154562E+00
        40  2.755742E+00  0.000000E+00  3.351655E+00
        41 -2.200494E+00  2.695528E-01 -8.461042E-01
        42  1.442757E+01 -8.442723E+00  6.067435E+00
        43  1.593788E+00 -4.291166E+00  3.405932E+00
        44  7.196701E+00 -6.606448E+00  5.104747E+00
        45 -1.318064E+00 -1.934621E+00  1.208574E+00

 stresses (elem, integ.pnt.,sxx,syy,szz,sxy,sxz,syz) for set EALL and time  0.1700000E+02

        37   1  2.223670E+00  2.566487E+00  3.317169E+00 -1.383665E-01  1.772118E-01  5.352511E-02
        37   2  2.977362E-01  2.028497E+00  1.555938E+00 -8.920673E-02  9.712299E-01  1.104071E-02
        37   3  3.580502E+00  1.841164E+00  1.217990E+00  3.521293E-03 -1.312458E-01 -2.082212E-01
        37   4 -4.459063E-01  1.447070E+00  1.551305E+00 -7.172207E-01  1.240533E+00  7.322181E-04
        38   1 -1.362844E-01 -4.721817E-01 -1.339779E+00  4.573449E-01 -2.152192E-01 -3.444049E-02
        38   2  5.586905E-01  3.186283E-02 -5.578309E-01  6.121808E-01 -1.317394E+00  1.510177E-01
        38   3  9.481118E-01 -1.011296E+00 -1.091530E+00  4.028707E-01 -3.496131E-02 -6.294808E-02
        38   4  2.057119E+00 -1.019841E-02  7.792252E-01  4.915980E-01 -1.315918E-01 -1.034058E-01
        39   1 -2.319177E+00  2.593196E+00  1.039466E+00 -4.509104E-02 -6.497281E-03 -1.715403E-01
        39   2 -3.710285E+00  1.960123E+00  1.106633E+00 -8.378241E-01  1.320852E-01 -3.919243E-01
        39   3 -1.499603E+00 -3.336564E-01  1.245391E+00  1.855252E-01  1.418665E+00 -4.006498E-01
        39   4  2.778559E+00 -5.863733E-01  4.443718E-01  3.141150E-02  1.189260E+00 -3.362599E-01
        40   1  8.608302E-01 -3.408725E+00 -4.881655E+00 -7.631774E-01  1.228106E+00 -3.556956E-02
        40   2 -2.141475E-01 -3.732930E+00 -3.790286E+00 -1.035683E+00  1.303902E+00  4.314340E-02
        40   3  9.302759E-02 -3.182947E+00 -5.314954E+00 -9.200650E-01  1.542601E+00  3.681187E-02
        40   4 -3.007333E-01  2.310314E+00  3.105210E+00 -6.462331E-01  6.569556E-01 -3.842303E-01
        41   1 -2.588204E+00  1.043017E+00  1.598570E+00 -2.874354E-01  1.379409E+00 -7.813575E-02
        41   2 -1.152497E+00  1.326502E+00  3.133458E+00 -7.579059E-02  1.210342E-01 -1.554863E-01
        41   3  2.601819E-01  2.963390E-01  2.464481E+00 -1.371312E+00 -1.020251E-01 -3.350490E-01
        41   4  3.155615E+00  2.331097E+00  3.769521E+00  3.619763E-01  1.795777E-01 -1.189716E-01
        42   1 -7.323785E-01 -7.426205E-01 -5.127018E-01  5.878270E-01 -4.895292E-01  1.440445E-01
        42   2 -8.291339E-02 -1.237408E+00 -3.739769E-01  1.580225E-01 -3.947393E-01  8.523526E-02
        42   3  1.008392E+00 -1.147633E+00 -1.511566E+00 -1.173493E-01 -4.991052E-01  5.918772E-02
        42   4 -2.684932E+00 -1.301310E-01  9.549318E-03  1.091017E+00 -1.189036E+00 -1.204107E-01
        43   1  2.001486E-01 -1.281216E-01 -2.246128E+00  3.077228E-01 -4.142324E-01  1.261839E-01
        43   2 -2.617456E+00 -4.342652E-01  2.576883E-01  8.994307E-01 -1.410440E+00 -9.619058E-02
        43   3 -6.794377E-01 -3.478478E-01 -1.174943E+00  2.904765E-01 -8.268208E-01  1.374423E-01
        43   4  1.077134E+00 -7.717253E-01 -2.052712E+00  2.722130E-01 -1.494841E-01  7.112164E-02
        44   1 -4.950196E-01 -2.886520E-02  8.283513E-01  9.931975E-01 -3.798277E-01 -7.571399E-02
        44   2 -1.353434E-01 -4.196286E-01 -8.849332E-01  5.075473E-01 -4.208196E-01 -6.814779E-02
        44   3  2.400463E+00  7.692481E-01  1.200780E+00  4.144940E-01 -3.123054E-01 -3.315025E-02
        44   4 -1.005325E+00 -1.551281E-01 -7.660584E-01  1.033855E+00 -9.505330E-01  1.512352E-02
        45   1 -2.411040E+00 -3.490494E-01  1.167327E-01  2.375972E-01 -1.059166E+00  5.200911E-02
        45   2  1.654570E+00 -7.168961E-01 -1.221709E+00  2.601679E-01 -7.235842E-01 -1.067166E-02
        45   3 -9.285066E-01 -8.001878E-01 -4.062981E-01  2.353135E-01 -6.936511E-01 -5.330969E-02
        45   4 -2.765958E+00 -1.002327E+00  1.177238E-01  7.327354E-01 -1.130564E+00  1.508025E-02
        46   1  9.109773E-01 -7.128222E-01 -8.872376E-01  2.293343E-01 -4.615543E-01  5.467775E-02
        46   2  7.084829E-01  2.756248E-01 -4.946928E-01  2.108700E-01 -1.196707E+00  9.643102E-02
        46   3  2.390120E+00  8.059263E-01  1.466863E+00  1.539210E-01 -6.420710E-01  1.462526E-01
        46   4  7.604071E-01 -2.445510E-01 -3.407687E-01  6.432576E-01 -1.356134E+00  8.460685E-02
        47   1 -4.426552E+00  1.839693E+00  2.708391E+00  3.886539E-02 -1.087370E-01 -7.771753E-02
        47   2 -1.632138E-01 -1.310830E+00 -4.516076E+00 -1.283516E+00  1.562326E+00 -1.545908E-01
        47   3 -2.235496E+00 -9.031846E-01 -1.322920E+00 -9.052342E-01  1.325814E+00  2.293567E-04
        47   4 -7.436716E-01 -3.185723E+00 -1.656633E+00 -1.012219E+00  1.612359E+00 -1.722129E-01
        48   1  3.927673E+00  1.722672E+00  4.578385E+00 -5.319881E-01 -3.325236E-01 -5.067813E-01
        48   2  1.042450E+00  3.143640E-01 -1.659795E+00 -1.881923E-01 -3.858798E-01  3.276365E-01
        48   3  9.138403E-02  6.719359E-01 -1.221657E+00 -3.807422E-01  9.097145E-02  3.788150E-01
        48   4  1.487967E+00  1.296403E+00  2.569544E+00 -4.533133E-01  1.268872E+00 -5.146814E-01

 internal state variables (elem, integ.pnt.,values) for set EALL and time  0.1700000E+02

        37   1  1.964606E-04  3.627672E-04  7.086204E-04 -8.063456E-05  3.602141E-05  3.382067E-05 -1.849715E-04 -4.131206E-05  1.859385E-04  1.112789E-04 -2.651679E-04 -3.729262E-05  6.568236E+02  7.252505E+00
        37   2 -1.419946E-04  3.946624E-04  4.091056E-04  1.508387E-05  7.567994E-04  1.363475E-06 -1.539567E-04  6.197789E-06  2.279010E-04  1.919333E-04 -4.432303E-04 -1.742283E-05  6.568236E+02  7.252505E+00
        37   3  1.005837E-03  4.836228E-04  2.763832E-04  5.145771E-05 -2.731178E-04 -3.633692E-04  1.031712E-04  4.413162E-04  4.559683E-04  1.502687E-04 -2.782303E-04 -2.110378E-04  6.792291E+02  1.093473E+01
        37   4 -2.975299E-04  3.334107E-04  4.413517E-04 -4.372543E-04  1.070588E-03 -2.917976E-05 -1.676515E-04  8.373159E-05  2.079304E-04  5.455518E-04 -3.805203E-04 -5.274012E-05  6.568236E+02  7.252505E+00
        38   1  3.839702E-05 -9.460698E-05 -1.031875E-04  4.766106E-05 -9.985345E-05 -2.196762E-04  2.023505E-05 -5.667055E-05  8.408854E-06 -1.074410E-04 -9.388755E-06 -1.607612E-04  6.137920E+02  3.296157E+00
        38   2  4.422073E-05 -5.068903E-05 -3.495220E-04  3.588409E-04 -7.926702E-04  2.889308E-04 -5.921940E-05 -6.308397E-05 -2.833668E-04 -7.064625E-05  1.302798E-04  2.088950E-04  6.361080E+02  4.961536E+00
        38   3  8.003565E-05 -1.189098E-04 -4.547442E-05  1.343631E-05 -3.137222E-04 -1.464700E-04 -2.490909E-05 -2.450668E-05  4.137090E-05 -1.171814E-04 -2.333140E-04 -9.430053E-05  6.137920E+02  3.296157E+00
        38   4  1.458301E-04 -1.568438E-04 -1.979007E-04  1.636616E-04 -2.931526E-04  1.688419E-04 -1.653770E-04 -1.032633E-04 -3.099590E-04 -1.980138E-04 -2.283356E-04  2.718290E-04  6.361080E+02  4.961536E+00
        39   1 -7.721229E-04  7.900482E-04  2.955945E-04  8.830473E-05 -3.921905E-04 -2.353533E-04 -1.043088E-04  1.938203E-04  7.890458E-05  2.974258E-04 -8.189437E-04 -7.734256E-05  6.637473E+02  8.233642E+00
        39   2 -1.213899E-03  7.207706E-04  4.002596E-04 -6.589662E-04 -2.871242E-04 -5.174623E-04 -3.403063E-04  2.768338E-04  9.855976E-05  6.566874E-04 -9.372169E-04 -1.354588E-04  6.637473E+02  8.233642E+00
        39   3 -6.259764E-04 -1.249547E-05  6.400942E-04  4.473833E-04  2.362593E-03 -7.015242E-04 -2.818412E-04  3.559969E-04  4.510476E-04  6.332119E-04  6.462098E-04 -3.106217E-04  6.861527E+02  1.241401E+01
        39   4  9.874236E-04 -2.937157E-04  1.496255E-04  1.162997E-04  2.033433E-03 -5.947531E-04  1.560908E-04  2.767042E-04  4.219020E-04  2.686461E-04  7.524404E-04 -2.884732E-04  6.861527E+02  1.241401E+01
        40   1  7.624443E-04 -1.043145E-03 -1.854387E-03 -1.372837E-03  2.268228E-03 -7.905389E-05 -5.635240E-05 -1.396767E-04 -8.332537E-04 -4.875511E-04  1.088322E-03 -9.701256E-05  6.930764E+02  1.409341E+01
        40   2  3.399334E-04 -1.142463E-03 -1.362830E-03 -1.861457E-03  2.377046E-03  4.171974E-05  5.754832E-06 -3.461639E-05 -8.009585E-04 -6.536889E-04  1.005828E-03 -1.490646E-04  6.930764E+02  1.409341E+01
        40   3  5.413411E-04 -9.298887E-04 -1.976373E-03 -1.559620E-03  2.819273E-03  2.040984E-05  1.770017E-04 -3.173688E-04 -7.818995E-04 -1.115135E-04  1.214346E-03 -2.021381E-04  6.930764E+02  1.409341E+01
        40   4 -2.635617E-04  6.387373E-04  1.017224E-03 -5.502083E-04  6.500301E-04 -5.768754E-04  1.317500E-04  2.917878E-04  5.359727E-04  7.069823E-04 -4.862214E-04 -2.178202E-04  6.706709E+02  9.347510E+00
        41   1 -6.959784E-04  2.608893E-04  5.580963E-04  3.025660E-04  1.360482E-03 -1.308866E-04 -4.002001E-05 -9.203510E-06  2.429728E-04  1.073334E-03 -1.214009E-04 -8.830586E-05  6.568236E+02  7.252505E+00
        41   2 -3.121359E-04  2.109239E-04  8.214228E-04  5.066072E-04 -7.740916E-07 -1.798817E-04  1.778789E-04 -3.060987E-05  1.851530E-04  1.042855E-03 -2.244250E-04 -3.407025E-05  6.568236E+02  7.252505E+00
        41   3 -2.494424E-05  5.743481E-06  9.865176E-04 -1.961576E-03 -3.102045E-04 -5.331223E-04  8.524582E-05  1.435352E-04  7.250222E-04  8.237712E-06 -5.293642E-04 -1.692457E-04  6.792291E+02  1.093473E+01
        41   4  4.599834E-04  2.456755E-04  8.087614E-04  6.561357E-04  1.406530E-04 -1.302250E-04 -7.485119E-05 -7.221752E-05  2.195461E-04  5.066850E-04 -7.896513E-05 -1.279422E-05  6.568236E+02  7.252505E+00
        42   1 -9.659729E-06  1.187765E-04  1.576720E-05 -2.153232E-04  9.668279E-05  5.579819E-05  2.156017E-05  1.133534E-04  2.732967E-05 -2.940287E-04  1.867692E-04  5.034779E-06  6.068960E+02  2.904851E+00
        42   2 -4.368880E-06  2.371704E-04  7.639508E-05 -3.269794E-04  2.621199E-04  3.841558E-05 -1.140691E-05  2.295000E-04  6.414362E-05 -2.699218E-04  2.812704E-04  6.723882E-06  6.068960E+02  2.904851E+00
        42   3 -6.503742E-05  2.441499E-04  2.733427E-05 -3.616625E-04  1.116240E-04 -2.216153E-05 -1.203051E-04  2.291914E-04  9.987138E-05 -2.287949E-04  1.993074E-04 -3.005655E-05  6.068960E+02  2.904851E+00
        42   4 -1.503396E-04 -2.478873E-04 -1.037266E-04  6.119951E-04 -8.085190E-04  1.411519E-04  1.929689E-04 -2.812012E-04 -1.593182E-04 -3.283804E-05 -1.040170E-04  2.113294E-04  6.292120E+02  4.372524E+00
        43   1  1.023077E-04  1.694140E-04  5.220620E-05 -4.014664E-04  2.648690E-04  6.463795E-05  4.290104E-05  1.105587E-04  1.588200E-04 -3.588998E-04  2.874117E-04  1.571552E-05  6.068960E+02  2.904851E+00
        43   2 -1.253814E-04 -1.939689E-04 -1.746537E-04  3.496222E-04 -1.061660E-03  1.557487E-04  2.081258E-04 -1.828110E-04 -2.668876E-04 -1.813903E-04 -2.258373E-04  2.112636E-04  6.292120E+02  4.372524E+00
        43   3  1.554124E-05  6.907454E-05  1.812483E-05 -3.272632E-04  2.975745E-06  3.643014E-05  3.438666E-05  5.242823E-05  6.826410E-05 -3.022558E-04  2.009968E-04 -7.081488E-06  6.068960E+02  2.904851E+00
        43   4 -3.984720E-05  1.534982E-04  7.652032E-05 -2.553686E-04  2.361508E-04 -3.568873E-05 -1.074840E-04  1.412974E-04  1.675420E-04 -2.465194E-04  2.040375E-04 -4.242777E-05  6.068960E+02  2.904851E+00
        44   1  1.689237E-04 -1.689575E-04 -3.931992E-05  8.308959E-04 -3.944179E-04 -3.420392E-05  3.589996E-04 -2.011749E-04 -2.624361E-04  5.338087E-05 -1.192964E-04  3.392070E-05  6.430040E+02  5.629893E+00
        44   2  9.879009E-05 -9.020783E-06 -3.225314E-04 -2.914822E-04 -3.271690E-04  1.040957E-04  7.947833E-05  1.615644E-05 -2.040851E-04 -4.642406E-04 -1.063700E-04  1.182309E-04  6.206880E+02  3.740175E+00
        44   3  2.787160E-04 -1.433770E-04 -4.630588E-05  5.691399E-04 -2.413562E-04  1.486179E-05 -1.121579E-04 -2.372330E-04 -2.327016E-04  3.130136E-04  1.087336E-05  5.339960E-05  6.430040E+02  5.629893E+00
        44   4  1.290638E-04 -1.196717E-04 -2.721082E-04  8.779744E-04 -7.149168E-04  2.365691E-06  3.627236E-04 -1.816155E-04 -2.151775E-04  7.444314E-05  4.989520E-05 -1.311065E-05  6.430040E+02  5.629893E+00
        45   1 -3.224507E-04 -3.031128E-04  4.158967E-05  1.841308E-04 -1.099975E-03  9.867075E-05  4.082161E-05 -3.428739E-04 -4.436091E-05  2.313960E-05 -4.186067E-04  7.054463E-05  6.361080E+02  4.961536E+00
        45   2  2.626590E-05  1.239868E-05 -1.914879E-04  1.628533E-04 -5.109824E-05  1.142177E-04 -1.142890E-04  6.335719E-05 -5.252419E-05  4.452347E-05  1.898165E-04  9.233171E-05  6.137920E+02  3.296157E+00
        45   3  4.196287E-06  3.518680E-06 -1.293734E-04  1.426623E-04 -6.944115E-06  6.820010E-05  5.500935E-05  4.406212E-05 -8.987159E-05  3.659960E-05  2.146995E-04  6.971771E-05  6.137920E+02  3.296157E+00
        45   4 -3.439247E-04 -3.384243E-04  8.784758E-05  2.353408E-04 -1.129443E-03  1.024774E-04  5.993545E-05 -2.800595E-04 -1.762519E-05 -3.033774E-04 -3.961701E-04  1.037300E-04  6.361080E+02  4.961536E+00
        46   1 -8.599554E-05 -2.553609E-04 -1.823763E-04  1.573190E-04 -3.745351E-04  1.107395E-04 -1.796098E-04 -1.560562E-04 -7.219989E-05  4.006955E-05 -1.305278E-04  7.268678E-05  6.206880E+02  3.740175E+00
        46   2  1.378112E-04 -1.643912E-04 -2.232150E-04  1.790045E-04 -1.016119E-03  1.111576E-04  1.134738E-05 -2.693570E-04 -1.420456E-04  1.520603E-05 -8.468514E-05  4.406930E-05  6.430040E+02  5.629893E+00
        46   3  3.543404E-04 -2.011317E-04  4.547451E-05  7.820169E-05 -6.186644E-04  1.379087E-04 -8.881474E-08 -3.116429E-04 -1.747096E-04 -5.723421E-05 -1.405450E-04  2.705487E-05  6.430040E+02  5.629893E+00
        46   4  2.354147E-04 -2.086583E-04 -1.964123E-04  3.035480E-04 -1.152884E-03  7.748671E-05  1.141211E-04 -2.020356E-04 -1.590153E-04 -2.665384E-04 -9.741784E-05  1.250757E-05  6.430040E+02  5.629893E+00
        47   1 -1.423765E-03  6.491995E-04  1.055101E-03  4.428006E-04 -4.506612E-04 -2.262890E-05  1.781186E-05  1.687869E-04  4.304454E-04  1.000992E-03 -7.925118E-04  1.987503E-04  6.706709E+02  9.347510E+00
        47   2  3.035715E-04 -2.185795E-04 -1.759384E-03 -2.215798E-03  2.839887E-03 -3.216970E-04  1.929792E-04 -1.824378E-05 -7.498778E-04 -3.641040E-04  1.159650E-03 -3.157801E-04  6.930764E+02  1.409341E+01
        47   3 -7.386993E-04 -1.248703E-04 -3.622826E-04 -1.551513E-03  2.431997E-03  3.632418E-06 -2.431152E-04  3.829526E-05 -1.944335E-04 -2.041538E-04  1.103318E-03  1.534829E-05  6.930764E+02  1.409341E+01
        47   4 -5.283012E-05 -1.043436E-03 -4.569725E-04 -1.748916E-03  2.928091E-03 -3.721546E-04 -2.455300E-04 -8.229204E-05 -2.594521E-04 -2.903712E-04  1.190092E-03 -4.215834E-04  6.930764E+02  1.409341E+01
        48   1  7.369789E-04  1.521812E-04  1.188438E-03 -4.910335E-04 -4.322661E-04 -5.917111E-04 -2.173834E-05  9.813226E-05  4.642828E-04  2.638337E-04 -1.028142E-04 -1.391485E-05  6.637473E+02  8.233642E+00
        48   2  4.006350E-04  2.646236E-04 -6.339735E-04 -2.727031E-04 -6.810845E-04  5.732922E-04 -9.770763E-05  4.940092E-04  4.764515E-05  7.681579E-05 -3.304445E-04  2.571762E-04  6.861527E+02  1.241401E+01
        48   3  9.863832E-05  3.690318E-04 -4.344060E-04 -4.721006E-04  9.897491E-05  6.372651E-04  1.498392E-04  3.242192E-04  1.165146E-04  4.794444E-04 -1.669723E-04  2.008878E-04  6.861527E+02  1.241401E+01
        48   4  2.261245E-04  1.727087E-04  7.454301E-04 -2.007773E-04  1.336763E-03 -7.592118E-04  8.470326E-07  4.527081E-06  3.957196E-04  6.873211E-04 -2.754080E-04 -3.503671E-04  6.637473E+02  8.233642E+00

 volume (element, volume) for set EALL and time  0.1700000E+02

        37  2.087500E+07
        38  2.079167E+07
        39  2.087500E+07
        40  2.087500E+07
        41  2.087500E+07
        42  2.079167E+07
        43  2.079167E+07
        44  2.079167E+07
        45  2.079167E+07
        46  2.079167E+07
        47  2.087500E+07
        48  2.087500E+07

 displacements (vx,vy,vz) for set NALL and time  0.1800000E+02

         1 -8.446637E+00  2.291253E-02 -1.157375E+00
         2 -4.472941E+00  6.859475E-02  0.000000E+00
         3 -3.997022E+00  0.000000E+00 -1.213455E+00
         4  0.000000E+00  0.000000E+00  0.000000E+00
         5  1.145057E+01 -1.618331E+01  1.050972E+01
         6  1.387876E+01 -1.662576E+01  0.000000E+00
         7  1.528128E+01  0.000000E+00  1.100097E+01
         8  1.722928E+01  0.000000E+00  0.000000E+00
         9 -3.662595E-01 -9.269660E+00  0.000000E+00
        10  4.059924E+00  0.000000E+00  0.000000E+00
        11 -4.043118E+00 -9.222349E+00  7.528334E+00
        12  4.790390E-01  0.000000E+00  7.409739E+00
        13  1.634046E+01 -8.319652E+00  0.000000E+00
        14  5.672945E+00 -1.376732E+01  0.000000E+00
        15 -3.599821E+00 -4.351136E+00  0.000000E+00
        16 -1.126221E+00  1.950100E-02  0.000000E+00
        17  9.697029E+00  0.000000E+00  0.000000E+00
        18  9.272759E-01  0.000000E+00  0.000000E+00
        19  1.385249E+01 -8.316704E+00  1.059362E+01
        20  3.492517E+00 -1.342865E+01  1.015860E+01
        21 -7.302858E+00 -4.412222E+00  2.958057E+00
        22 -5.177949E+00  2.897283E-02 -1.190045E+00
        23  7.049569E+00  0.000000E+00  1.038819E+01
        24 -2.956218E+00  0.000000E+00  2.868131E+00
        25 -5.529044E+00  3.260118E-02 -5.686982E-01
        26  1.244251E+01 -1.626591E+01  5.632666E+00
        27 -9.502461E-01  0.000000E+00 -5.772530E-01
        28  1.646216E+01  0.000000E+00  5.615790E+00
        29  8.719719E+00 -6.751712E+00  0.000000E+00
        30  3.037334E+00 -4.628438E+00  0.000000E+00
        31 -1.518161E-01 -2.218550E+00  0.000000E+00
        32  6.211180E+00 -6.645663E+00  1.018678E+01
        33 -4.056127E+00 -2.218755E+00  2.897113E+00
        34 -6.079145E-01 -4.600267E+00  7.468152E+00
        35  5.060187E+00 -1.354832E+01  5.034652E+00
        36 -4.451641E+00 -4.377730E+00  1.521173E+00
        37 -1.196416E+00 -9.235404E+00  3.702460E+00
        38  9.066284E+00  0.000000E+00  5.288417E+00
        39  1.346043E-02  0.000000E+00  1.435594E+00
        40  3.263686E+00  0.000000E+00  3.633357E+00
        41 -2.187949E+00  3.484467E-02 -5.839327E-01
        42  1.514555E+01 -8.342379E+00  5.659770E+00
        43  2.119538E+00 -4.621344E+00  3.705623E+00
        44  8.001449E+00 -6.791876E+00  5.139940E+00
        45 -1.074364E+00 -2.219165E+00  1.490548E+00

 stresses (elem, integ.pnt.,sxx,syy,szz,sxy,sxz,syz) for set EALL and time  0.1800000E+02

        37   1  2.665542E+00  3.037584E+00  3.860803E+00 -1.706331E-01  2.267889E-01  6.579231E-02
        37   2  3.863578E-01  2.383483E+00  1.767510E+00 -1.181201E-01  1.173785E+00  1.430931E-02
        37   3  4.151978E+00  2.040135E+00  1.307140E+00 -3.115368E-03 -1.410600E-01 -2.351817E-01
        37   4 -4.861854E-01  1.674496E+00  1.765464E+00 -8.810614E-01  1.486444E+00  4.725410E-03
        38   1 -1.669959E-01 -5.201054E-01 -1.580706E+00  5.534809E-01 -2.520139E-01 -1.638469E-02
        38   2  7.144121E-01  9.568296E-02 -5.149774E-01  7.282407E-01 -1.563247E+00  1.568261E-01
        38   3  1.129633E+00 -1.175995E+00 -1.311519E+00  4.901069E-01 -7.812984E-03 -5.981294E-02
        38   4  2.531616E+00  7.563082E-02  1.081139E+00  5.987301E-01 -1.318124E-01 -1.490084E-01
        39   1 -2.712142E+00  2.998171E+00  1.197191E+00 -7.124047E-02  4.276871E-02 -1.968947E-01
        39   2 -4.284902E+00  2.237883E+00  1.273670E+00 -1.026057E+00  2.120816E-01 -4.527555E-01
        39   3 -1.737421E+00 -4.751408E-01  1.372046E+00  1.921367E-01  1.643140E+00 -4.571752E-01
        39   4  3.210743E+00 -7.697223E-01  4.209762E-01  2.571526E-02  1.369218E+00 -3.831901E-01
        40   1  1.050205E+00 -3.950781E+00 -5.590928E+00 -8.782575E-01  1.404266E+00 -3.811562E-02
        40   2 -2.284508E-01 -4.352853E+00 -4.318453E+00 -1.191732E+00  1.496513E+00  5.630189E-02
        40   3  1.140393E-01 -3.664007E+00 -6.110613E+00 -1.075963E+00  1.768103E+00  5.072225E-02
        40   4 -4.208057E-01  2.607539E+00  3.496220E+00 -7.988220E-01  8.000017E-01 -4.403850E-01
        41   1 -3.043881E+00  1.220398E+00  1.808255E+00 -4.111529E-01  1.631911E+00 -8.561243E-02
        41   2 -1.424157E+00  1.552249E+00  3.625170E+00 -1.617774E-01  1.583405E-01 -1.804585E-01
        41   3  2.522544E-01  2.814600E-01  2.729172E+00 -1.614316E+00 -9.484098E-02 -3.848834E-01
        41   4  3.728327E+00  2.761721E+00  4.378319E+00  3.913341E-01  2.173139E-01 -1.390314E-01
        42   1 -8.976755E-01 -9.711830E-01 -6.423684E-01  7.394279E-01 -6.065235E-01  1.683101E-01
        42   2 -1.304507E-01 -1.646810E+00 -5.187081E-01  2.304216E-01 -5.103135E-01  9.941438E-02
        42   3  1.235471E+00 -1.530622E+00 -1.868939E+00 -9.971536E-02 -6.197706E-01  7.467184E-02
        42   4 -3.217541E+00 -7.588256E-03  1.011836E-01  1.286715E+00 -1.387048E+00 -1.651071E-01
        43   1  1.620494E-01 -2.682403E-01 -2.784501E+00  4.217966E-01 -5.336839E-01  1.457865E-01
        43   2 -3.145424E+00 -4.076259E-01  4.372826E-01  1.078620E+00 -1.633312E+00 -1.365811E-01
        43   3 -8.429433E-01 -4.659863E-01 -1.446123E+00  3.919644E-01 -1.004681E+00  1.624758E-01
        43   4  1.308813E+00 -1.029261E+00 -2.547998E+00  3.604874E-01 -2.102624E-01  9.066672E-02
        44   1 -7.003615E-01  4.469574E-02  1.073668E+00  1.165244E+00 -4.365473E-01 -9.230320E-02
        44   2 -1.891991E-01 -4.925725E-01 -9.316057E-01  6.576308E-01 -4.805925E-01 -9.500295E-02
        44   3  2.907907E+00  1.032778E+00  1.536080E+00  4.608482E-01 -3.683762E-01 -4.407361E-02
        44   4 -1.306374E+00 -1.166570E-01 -8.248344E-01  1.211216E+00 -1.124864E+00  1.861189E-02
        45   1 -2.822579E+00 -2.467708E-01  1.819256E-01  2.774887E-01 -1.205601E+00  5.406498E-02
        45   2  2.025088E+00 -8.706466E-01 -1.396043E+00  2.990521E-01 -8.784939E-01 -2.605494E-02
        45   3 -1.124333E+00 -9.717586E-01 -4.290969E-01  2.709944E-01 -8.466953E-01 -7.275752E-02
        45   4 -3.257191E+00 -1.048822E+00  1.637077E-01  8.928557E-01 -1.291801E+00  7.206179E-03
        46   1  1.206734E+00 -7.172350E-01 -9.692533E-01  2.641839E-01 -5.256561E-01  5.474945E-02
        46   2  8.583321E-01  4.497714E-01 -5.040805E-01  2.470870E-01 -1.402288E+00  1.096101E-01
        46   3  2.848314E+00  1.096212E+00  1.822201E+00  1.861907E-01 -7.439259E-01  1.697684E-01
        46   4  8.727198E-01 -1.973775E-01 -3.280753E-01  7.814146E-01 -1.589177E+00  9.859402E-02
        47   1 -5.236191E+00  2.096078E+00  3.066340E+00 -9.257317E-03 -8.417644E-02 -1.012189E-01
        47   2 -1.987880E-01 -1.519287E+00 -5.186033E+00 -1.494282E+00  1.793840E+00 -1.701256E-01
        47   3 -2.580566E+00 -1.054320E+00 -1.516696E+00 -1.056064E+00  1.519371E+00 -3.837450E-04
        47   4 -8.210539E-01 -3.710905E+00 -1.893803E+00 -1.177677E+00  1.852704E+00 -1.869431E-01
        48   1  4.599029E+00  1.977574E+00  5.256274E+00 -6.428199E-01 -3.850825E-01 -5.957083E-01
        48   2  1.222448E+00  2.672806E-01 -1.983662E+00 -2.245400E-01 -4.393109E-01  3.749653E-01
        48   3  6.156436E-02  7.108451E-01 -1.483497E+00 -4.669626E-01  1.146264E-01  4.384040E-01
        48   4  1.732221E+00  1.501310E+00  2.912285E+00 -5.759478E-01  1.510491E+00 -5.850524E-01

 internal state variables (elem, integ.pnt.,values) for set EALL and time  0.1800000E+02

        37   1  3.203012E-04  5.008428E-04  8.942529E-04 -1.428109E-04  1.300046E-04  5.733866E-05 -1.256676E-04  3.456392E-05  3.029422E-04  8.272619E-05 -2.278368E-04 -2.626726E-05  6.568236E+02  7.705787E+00
        37   2 -1.426473E-04  5.286969E-04  4.783059E-04 -3.928520E-05  1.152384E-03  7.424664E-06 -1.638369E-04  8.273863E-05  2.813560E-04  1.727756E-04 -2.450231E-04 -1.508040E-05  6.568236E+02  7.705787E+00
        37   3  1.269862E-03  5.386857E-04  2.703494E-04  3.804602E-05 -2.988300E-04 -4.266715E-04  3.086594E-04  5.121964E-04  4.819088E-04  1.503253E-04 -3.161675E-04 -2.728120E-04  6.792291E+02  1.161815E+01
        37   4 -3.469446E-04  4.217884E-04  5.279601E-04 -7.551684E-04  1.553665E-03 -2.248549E-05 -2.061889E-04  1.391673E-04  2.700360E-04  3.978648E-04 -1.285378E-04 -5.223582E-05  6.568236E+02  7.705787E+00
        38   1  4.272402E-05 -9.922981E-05 -1.670961E-04  1.638576E-04 -1.467559E-04 -2.065138E-04  2.294559E-05 -6.121940E-05 -1.731373E-05 -6.499030E-05 -2.901072E-05 -1.628956E-04  6.137920E+02  3.502167E+00
        38   2  9.282578E-05 -4.025774E-05 -3.547235E-04  5.476794E-04 -1.195725E-03  3.056973E-04 -3.964512E-05 -6.167746E-05 -3.014716E-04  1.408791E-05 -5.181868E-05  2.283552E-04  6.361080E+02  5.271632E+00
        38   3  1.451574E-04 -1.638004E-04 -1.052360E-04  1.185935E-04 -2.913751E-04 -1.482766E-04  5.271470E-07 -4.400695E-05  1.889125E-05 -7.967988E-05 -2.351104E-04 -9.945602E-05  6.137920E+02  3.502167E+00
        38   4  2.912475E-04 -1.714431E-04 -1.259594E-04  3.337845E-04 -3.015822E-04  1.028282E-04 -1.061861E-04 -1.158089E-04 -2.932153E-04 -1.290892E-04 -2.449866E-04  2.558727E-04  6.361080E+02  5.271632E+00
        39   1 -9.922838E-04  9.935207E-04  3.698776E-04  3.772232E-05 -3.016438E-04 -2.899445E-04 -2.465403E-04  3.311617E-04  1.295970E-04  2.852221E-04 -8.151386E-04 -1.159929E-04  6.637473E+02  8.748245E+00
        39   2 -1.512593E-03  8.793188E-04  5.018762E-04 -1.044160E-03 -1.321704E-04 -6.471531E-04 -5.460915E-04  3.919550E-04  1.675890E-04  4.611583E-04 -9.011124E-04 -2.240693E-04  6.637473E+02  8.748245E+00
        39   3 -7.491743E-04 -7.225761E-05  7.397714E-04  4.670010E-04  2.893226E-03 -8.385550E-04 -4.032739E-04  3.309182E-04  5.648216E-04  6.929452E-04  1.130483E-03 -4.463004E-04  6.861527E+02  1.318989E+01
        39   4  1.226090E-03 -4.158129E-04  1.226308E-04  1.049773E-04  2.459431E-03 -7.078014E-04  3.651672E-04  1.943091E-04  4.286133E-04  2.776816E-04  1.157104E-03 -4.022657E-04  6.861527E+02  1.318989E+01
        40   1  9.628195E-04 -1.287886E-03 -2.214200E-03 -1.654743E-03  2.698531E-03 -8.600829E-05  1.250054E-04 -3.759472E-04 -1.222923E-03 -7.822922E-04  1.560998E-03 -1.102437E-04  6.930764E+02  1.497425E+01
        40   2  4.250326E-04 -1.426385E-03 -1.602498E-03 -2.244482E-03  2.846589E-03  7.235892E-05  8.490405E-05 -2.997847E-04 -1.077349E-03 -1.053650E-03  1.508679E-03 -1.312079E-04  6.930764E+02  1.497425E+01
        40   3  6.553034E-04 -1.122775E-03 -2.374087E-03 -1.938338E-03  3.371403E-03  5.271549E-05  2.943541E-04 -5.177928E-04 -1.202941E-03 -4.699265E-04  1.808827E-03 -1.864202E-04  6.930764E+02  1.497425E+01
        40   4 -3.719633E-04  7.654120E-04  1.203463E-03 -8.755813E-04  9.562033E-04 -7.021830E-04  6.739212E-05  3.959288E-04  6.959183E-04  5.348821E-04 -3.127037E-04 -3.160285E-04  6.706709E+02  9.931729E+00
        41   1 -9.215408E-04  3.534567E-04  6.736615E-04  7.333705E-05  1.861333E-03 -1.477159E-04 -1.709875E-04  4.286501E-05  3.237510E-04  1.008782E-03  1.568559E-04 -1.034368E-04  6.568236E+02  7.705787E+00
        41   2 -4.750327E-04  2.930896E-04  1.046038E-03  3.548323E-04  6.891359E-05 -2.306178E-04  9.622599E-05  1.420618E-05  3.242835E-04  1.020903E-03 -1.986098E-04 -6.511277E-05  6.568236E+02  7.705787E+00
        41   3 -4.771587E-05 -1.923165E-05  1.131534E-03 -2.515638E-03 -2.990874E-04 -6.508847E-04  7.384801E-05  1.344220E-04  8.823071E-04 -4.077158E-04 -5.567913E-04 -2.695457E-04  6.792291E+02  1.161815E+01
        41   4  6.400089E-04  3.530273E-04  1.018138E-03  7.236830E-04  2.137341E-04 -1.706386E-04  2.319499E-05 -1.569373E-05  3.521605E-04  5.762936E-04 -4.229091E-05 -3.663462E-05  6.568236E+02  7.705787E+00
        42   1 -3.640917E-05  7.985860E-05 -1.234672E-06 -5.862954E-05 -2.642889E-05  8.442418E-05  1.191248E-05  1.029281E-04  2.179320E-05 -2.449063E-04  1.462038E-04  1.659518E-05  6.068960E+02  3.086405E+00
        42   2  4.183099E-06  1.563226E-04  6.005193E-05 -2.606670E-04  1.463373E-04  5.491718E-05 -8.525210E-06  2.075822E-04  6.048649E-05 -2.555453E-04  2.477739E-04  1.355786E-05  6.068960E+02  3.086405E+00
        42   3  1.287987E-05  1.678463E-04 -5.324934E-05 -3.565363E-04 -1.505297E-05 -6.323781E-06 -9.473579E-05  2.090577E-04  7.234164E-05 -2.368285E-04  1.578973E-04 -2.510234E-05  6.068960E+02  3.086405E+00
        42   4 -3.335567E-04 -1.947083E-04 -5.721106E-05  9.122853E-04 -1.117218E-03  8.053903E-05  1.212764E-04 -2.723220E-04 -1.469234E-04  9.962546E-05 -2.475306E-04  1.954232E-04  6.292120E+02  4.645807E+00
        43   1  1.219335E-04  1.637648E-04 -7.071951E-05 -2.934030E-04  1.443518E-04  8.831894E-05  5.256812E-05  1.131824E-04  1.171106E-04 -3.318999E-04  2.523289E-04  2.578128E-05  6.068960E+02  3.086405E+00
        43   2 -3.061828E-04 -1.746543E-04 -9.674397E-05  6.176818E-04 -1.414233E-03  1.016805E-04  1.383189E-04 -1.838393E-04 -2.461650E-04 -7.119312E-05 -3.954047E-04  1.982959E-04  6.292120E+02  4.645807E+00
        43   3 -8.588021E-06  5.954879E-05 -3.721583E-05 -2.299157E-04 -1.904558E-04  6.524498E-05  2.634339E-05  5.096398E-05  4.934050E-05 -2.769983E-04  1.332120E-04  4.018629E-06  6.068960E+02  3.086405E+00
        43   4  4.068924E-05  1.082464E-04 -4.025693E-05 -1.688390E-04  1.799035E-04 -1.585667E-05 -8.031102E-05  1.295938E-04  1.286508E-04 -2.231028E-04  1.907231E-04 -3.643990E-05  6.068960E+02  3.086405E+00
        44   1  8.027596E-05 -1.486970E-04  5.813320E-05  1.136300E-03 -4.983142E-04 -6.239318E-05  3.356675E-04 -2.027104E-04 -2.290736E-04  2.082060E-04 -1.778550E-04  2.186882E-05  6.430040E+02  5.981761E+00
        44   2  9.174935E-05 -2.522786E-05 -3.399881E-04 -1.062090E-04 -4.159702E-04  7.190942E-05  8.043858E-05  1.009105E-05 -2.215679E-04 -4.087161E-04 -1.493252E-04  1.104562E-04  6.206880E+02  3.973935E+00
        44   3  4.369909E-04 -9.747565E-05  3.557444E-05  6.593502E-04 -3.406635E-04 -2.526219E-06 -3.992335E-05 -2.280975E-04 -2.053695E-04  3.758019E-04 -3.795196E-05  4.786033E-05  6.430040E+02  5.981761E+00
        44   4  2.318342E-05 -8.854710E-05 -2.863765E-04  1.193646E-03 -1.020745E-03  8.678062E-06  3.310255E-04 -1.766039E-04 -2.347027E-04  2.354822E-04 -9.897314E-05 -1.069080E-05  6.430040E+02  5.981761E+00
        45   1 -4.794799E-04 -2.585901E-04  8.142938E-05  2.507399E-04 -1.355442E-03  1.045622E-04 -3.075632E-05 -3.408994E-04 -2.806849E-05  5.570053E-05 -5.617729E-04  7.725006E-05  6.361080E+02  5.271632E+00
        45   2  1.362272E-04 -3.377932E-05 -2.527900E-04  2.151987E-04 -2.373983E-04  9.985410E-05 -7.469732E-05  4.745350E-05 -8.005143E-05  6.800853E-05  1.225355E-04  9.078934E-05  6.137920E+02  3.502167E+00
        45   3 -3.924757E-05 -3.147449E-05 -1.254604E-04  1.904732E-04 -1.897554E-04  4.722319E-05  3.981692E-05  3.182920E-05 -9.248248E-05  5.786255E-05  1.500110E-04  6.442338E-05  6.137920E+02  3.502167E+00
        45   4 -5.199397E-04 -3.403973E-04  1.339334E-04  4.900965E-04 -1.408751E-03  9.318514E-05 -1.948352E-05 -2.964853E-04  3.066760E-06 -2.006163E-04 -5.492989E-04  1.051389E-04  6.361080E+02  5.271632E+00
        46   1 -7.788807E-07 -2.729919E-04 -2.233242E-04  2.080885E-04 -4.701876E-04  1.145118E-04 -1.523886E-04 -1.712496E-04 -9.311042E-05  6.358731E-05 -1.775716E-04  7.790134E-05  6.206880E+02  3.973935E+00
        46   2  1.872171E-04 -1.128376E-04 -2.498499E-04  2.434090E-04 -1.381593E-03  1.356967E-04  3.657267E-05 -2.592737E-04 -1.634912E-04  4.805531E-05 -2.711111E-04  5.884864E-05  6.430040E+02  5.981761E+00
        46   3  4.943362E-04 -1.457654E-04  1.382883E-04  1.339654E-04 -8.024379E-04  1.802677E-04  6.948406E-05 -3.021090E-04 -1.385662E-04 -3.283799E-05 -2.399626E-04  4.972307E-05  6.430040E+02  5.981761E+00
        46   4  2.788773E-04 -2.035457E-04 -2.052283E-04  5.406145E-04 -1.566859E-03  1.023993E-04  1.423280E-04 -2.111707E-04 -1.725697E-04 -1.643466E-04 -3.086851E-04  2.564857E-05  6.430040E+02  5.981761E+00
        47   1 -1.856763E-03  8.066523E-04  1.276200E-03  3.503833E-04 -4.074864E-04 -7.336649E-05 -2.717141E-04  2.855696E-04  6.069865E-04  1.004519E-03 -8.154870E-04  1.774397E-04  6.706709E+02  9.931729E+00
        47   2  3.556726E-04 -2.714250E-04 -2.106214E-03 -2.728016E-03  3.405520E-03 -3.610708E-04  2.540272E-04 -6.838175E-05 -1.121782E-03 -8.628939E-04  1.762293E-03 -3.740872E-04  6.930764E+02  1.497425E+01
        47   3 -8.938887E-04 -1.614803E-04 -4.286336E-04 -1.917416E-03  2.903501E-03  2.375417E-06 -4.031219E-04  7.063684E-06 -2.689711E-04 -5.563304E-04  1.614208E-03  1.532057E-05  6.930764E+02  1.497425E+01
        47   4 -3.387835E-05 -1.296150E-03 -5.387367E-04 -2.152048E-03  3.513366E-03 -4.103598E-04 -2.448567E-04 -3.218154E-04 -3.526939E-04 -6.835957E-04  1.812290E-03 -4.860745E-04  6.930764E+02  1.497425E+01
        48   1  9.789894E-04  1.760843E-04  1.448688E-03 -7.183019E-04 -5.439532E-04 -7.781466E-04  1.259958E-04  1.188414E-04  6.536594E-04  1.405914E-04 -1.780941E-04 -1.295707E-04  6.637473E+02  8.748245E+00
        48   2  5.219900E-04  2.570012E-04 -8.117950E-04 -3.576846E-04 -8.110660E-04  6.859068E-04 -3.183949E-06  5.217400E-04 -9.631200E-05  1.153559E-05 -4.609616E-04  3.683039E-04  6.861527E+02  1.318989E+01
        48   3  1.013003E-04  4.156707E-04 -5.695368E-04 -6.725033E-04  1.521421E-04  7.769346E-04  1.623515E-04  3.855323E-04  1.262112E-05  3.453664E-04 -1.344537E-04  3.301441E-04  6.861527E+02  1.318989E+01
        48   4  2.988364E-04  2.267856E-04  8.807585E-04 -4.469339E-04  1.838535E-03 -9.105309E-04  4.559582E-05  3.815698E-05  5.040153E-04  5.793473E-04  1.615899E-05 -4.657339E-04  6.637473E+02  8.748245E+00

 volume (element, volume) for set EALL and time  0.1800000E+02

        37  2.087500E+07
        38  2.079167E+07
        39  2.087500E+07
        40  2.087500E+07
        41  2.087500E+07
        42  2.079167E+07
        43  2.079167E+07
        44  2.079167E+07
        45  2.079167E+07
        46  2.079167E+07
        47  2.087500E+07
        48  2.087500E+07

 displacements (vx,vy,vz) for set NALL and time  0.1900000E+02

         1 -8.345687E+00 -4.387567E-01 -6.488872E-01
         2 -4.534675E+00 -3.527870E-01  0.000000E+00
         3 -3.963512E+00  0.000000E+00 -7.444687E-01
         4  0.000000E+00  0.000000E+00  0.000000E+00
         5  1.307368E+01 -1.564770E+01  9.248890E+00
         6  1.488548E+01 -1.614906E+01  0.000000E+00
         7  1.652222E+01  0.000000E+00  9.802521E+00
         8  1.764202E+01  0.000000E+00  0.000000E+00
         9  1.873184E-01 -9.904762E+00  0.000000E+00
        10  4.464088E+00  0.000000E+00  0.000000E+00
        11 -3.230311E+00 -9.869756E+00  8.118615E+00
        12  1.175093E+00  0.000000E+00  7.979535E+00
        13  1.690701E+01 -8.095954E+00  0.000000E+00
        14  6.593501E+00 -1.405822E+01  0.000000E+00
        15 -3.405612E+00 -4.906006E+00  0.000000E+00
        16 -1.129042E+00 -2.011739E-01  0.000000E+00
        17  1.025669E+01  0.000000E+00  0.000000E+00
        18  1.110222E+00  0.000000E+00  0.000000E+00
        19  1.504550E+01 -8.118145E+00  9.342565E+00
        20  5.058941E+00 -1.363933E+01  1.004590E+01
        21 -6.923029E+00 -4.941413E+00  3.479616E+00
        22 -5.115262E+00 -2.123849E-01 -7.031787E-01
        23  8.217004E+00  0.000000E+00  1.033175E+01
        24 -2.657078E+00  0.000000E+00  3.405317E+00
        25 -5.523569E+00 -4.092094E-01 -2.974974E-01
        26  1.339266E+01 -1.573939E+01  5.094770E+00
        27 -9.094365E-01  0.000000E+00 -3.265811E-01
        28  1.702758E+01  0.000000E+00  5.054385E+00
        29  9.367037E+00 -6.876090E+00  0.000000E+00
        30  3.489988E+00 -4.939812E+00  0.000000E+00
        31  5.832362E-02 -2.500859E+00  0.000000E+00
        32  7.457458E+00 -6.739236E+00  1.008466E+01
        33 -3.732280E+00 -2.491242E+00  3.431611E+00
        34  1.219982E-01 -4.912828E+00  8.049021E+00
        35  6.092645E+00 -1.379066E+01  4.973737E+00
        36 -4.189325E+00 -4.925295E+00  1.796720E+00
        37 -5.662506E-01 -9.864639E+00  3.970228E+00
        38  9.782005E+00  0.000000E+00  5.285137E+00
        39  2.441760E-01  0.000000E+00  1.708333E+00
        40  3.760457E+00  0.000000E+00  3.888925E+00
        41 -2.156508E+00 -2.042356E-01 -3.158057E-01
        42  1.573760E+01 -8.141261E+00  5.120925E+00
        43  2.644981E+00 -4.932409E+00  3.980907E+00
        44  8.771001E+00 -6.923983E+00  5.105440E+00
        45 -8.166520E-01 -2.497153E+00  1.763950E+00

 stresses (elem, integ.pnt.,sxx,syy,szz,sxy,sxz,syz) for set EALL and time  0.1900000E+02

        37   1  3.123992E+00  3.527290E+00  4.425310E+00 -2.044054E-01  2.789322E-01  7.861309E-02
        37   2  4.781538E-01  2.752040E+00  1.986395E+00 -1.484666E-01  1.385398E+00  1.774091E-02
        37   3  4.741548E+00  2.240393E+00  1.393522E+00 -1.028214E-02 -1.506349E-01 -2.629269E-01
        37   4 -5.275666E-01  1.910315E+00  1.987288E+00 -1.052156E+00  1.743097E+00  8.972686E-03
        38   1 -1.985375E-01 -5.696245E-01 -1.831526E+00  6.533341E-01 -2.903125E-01  2.832975E-03
        38   2  8.770703E-01  1.628055E-01 -4.678202E-01  8.487338E-01 -1.818572E+00  1.624833E-01
        38   3  1.317977E+00 -1.346962E+00 -1.541117E+00  5.806016E-01  2.056298E-02 -5.627309E-02
        38   4  3.025557E+00  1.662098E-01  1.398003E+00  7.102313E-01 -1.316917E-01 -1.969317E-01
        39   1 -3.119832E+00  3.416715E+00  1.360330E+00 -9.877338E-02  9.544525E-02 -2.230476E-01
        39   2 -4.880037E+00  2.523983E+00  1.444956E+00 -1.222337E+00  2.964011E-01 -5.156740E-01
        39   3 -1.983352E+00 -6.262641E-01  1.499848E+00  1.984308E-01  1.875303E+00 -5.148805E-01
        39   4  3.656284E+00 -9.635636E-01  3.921377E-01  1.948626E-02  1.555381E+00 -4.313024E-01
        40   1  1.246248E+00 -4.508144E+00 -6.320844E+00 -9.962730E-01  1.585476E+00 -4.058314E-02
        40   2 -2.434315E-01 -4.990945E+00 -4.861085E+00 -1.351571E+00  1.694797E+00  7.010274E-02
        40   3  1.367382E-01 -4.157975E+00 -6.929906E+00 -1.236398E+00  1.999640E+00  6.530997E-02
        40   4 -5.445793E-01  2.911377E+00  3.897046E+00 -9.579840E-01  9.492913E-01 -4.983208E-01
        41   1 -3.515728E+00  1.404696E+00  2.025584E+00 -5.410588E-01  1.895165E+00 -9.323689E-02
        41   2 -1.706732E+00  1.786875E+00  4.136096E+00 -2.529172E-01  1.976937E-01 -2.062651E-01
        41   3  2.426761E-01  2.630219E-01  2.996995E+00 -1.866209E+00 -8.663299E-02 -4.356782E-01
        41   4  4.322840E+00  3.209454E+00  5.010525E+00  4.208879E-01  2.568037E-01 -1.597961E-01
        42   1 -1.069553E+00 -1.209420E+00 -7.775337E-01  8.971118E-01 -7.284715E-01  1.934083E-01
        42   2 -1.806173E-01 -2.073650E+00 -6.698940E-01  3.059980E-01 -6.309180E-01  1.141893E-01
        42   3  1.471661E+00 -1.929992E+00 -2.240954E+00 -8.093455E-02 -7.455018E-01  9.084041E-02
        42   4 -3.770548E+00  1.212130E-01  1.976470E-01  1.489528E+00 -1.592448E+00 -2.118764E-01
        43   1  1.215765E-01 -4.152287E-01 -3.345084E+00  5.409650E-01 -6.580597E-01  1.660568E-01
        43   2 -3.693578E+00 -3.784975E-01  6.254997E-01  1.264742E+00 -1.864124E+00 -1.788159E-01
        43   3 -1.012969E+00 -5.892898E-01 -1.728493E+00  4.978721E-01 -1.189587E+00  1.883587E-01
        43   4  1.549752E+00 -1.297802E+00 -3.063874E+00  4.524318E-01 -2.740109E-01  1.110189E-01
        44   1 -9.151028E-01  1.226942E-01  1.331452E+00  1.343852E+00 -4.951909E-01 -1.096691E-01
        44   2 -2.454337E-01 -5.686326E-01 -9.788159E-01  8.143365E-01 -5.423683E-01 -1.230251E-01
        44   3  3.436382E+00  1.308968E+00  1.887389E+00  5.083137E-01 -4.267072E-01 -5.562072E-02
        44   4 -1.620276E+00 -7.555622E-02 -8.841434E-01  1.395029E+00 -1.305939E+00  2.211683E-02
        45   1 -3.250061E+00 -1.376006E-01  2.504199E-01  3.188449E-01 -1.357022E+00  5.610190E-02
        45   2  2.410743E+00 -1.031016E+00 -1.576914E+00  3.392443E-01 -1.039765E+00 -4.221818E-02
        45   3 -1.328298E+00 -1.150657E+00 -4.523510E-01  3.078625E-01 -1.006041E+00 -9.304111E-02
        45   4 -3.767586E+00 -1.094739E+00  2.118170E-01  1.059248E+00 -1.458634E+00 -1.181545E-03
        46   1  1.515211E+00 -7.204446E-01 -1.054039E+00  3.001883E-01 -5.919193E-01  5.469496E-02
        46   2  1.013745E+00  6.332171E-01 -5.122374E-01  2.846116E-01 -1.615688E+00  1.232879E-01
        46   3  3.324110E+00  1.401022E+00  2.193932E+00  2.196753E-01 -8.495243E-01  1.942368E-01
        46   4  9.887979E-01 -1.463497E-01 -3.131849E-01  9.248613E-01 -1.831204E+00  1.131822E-01
        47   1 -6.074470E+00  2.358681E+00  3.433803E+00 -6.073120E-02 -5.727861E-02 -1.254413E-01
        47   2 -2.344150E-01 -1.733712E+00 -5.875555E+00 -1.711224E+00  2.031826E+00 -1.858319E-01
        47   3 -2.936032E+00 -1.210049E+00 -1.716365E+00 -1.211431E+00  1.718768E+00 -1.063332E-03
        47   4 -8.999295E-01 -4.251325E+00 -2.137808E+00 -1.347723E+00  2.100255E+00 -2.016855E-01
        48   1  5.294766E+00  2.240684E+00  5.957652E+00 -7.585677E-01 -4.394195E-01 -6.879366E-01
        48   2  1.407518E+00  2.137682E-01 -2.323485E+00 -2.622220E-01 -4.936807E-01  4.238166E-01
        48   3  2.979106E-02  7.471026E-01 -1.759315E+00 -5.564472E-01  1.396453E-01  5.003251E-01
        48   4  1.985788E+00  1.711983E+00  3.265742E+00 -7.045287E-01  1.761950E+00 -6.579186E-01

 internal state variables (elem, integ.pnt.,values) for set EALL and time  0.1900000E+02

        37   1  4.532852E-04  6.492361E-04  1.092639E-03 -2.100574E-04  2.321243E-04  8.280153E-05 -5.456402E-05  1.236417E-04  4.372798E-04  4.807127E-05 -1.811063E-04 -1.292367E-05  6.568236E+02  8.159068E+00
        37   2 -1.428810E-04  6.724420E-04  5.515177E-04 -9.846446E-05  1.578735E-03  1.404545E-05 -1.736059E-04  1.719816E-04  3.409970E-04  1.481420E-04 -8.545334E-06 -1.211884E-05  6.568236E+02  8.159068E+00
        37   3  1.548371E-03  5.947351E-04  2.617102E-04  2.321690E-05 -3.247224E-04 -4.929174E-04  5.467931E-04  5.890948E-04  5.062197E-04  1.484588E-04 -3.568061E-04 -3.422078E-04  6.792291E+02  1.230157E+01
        37   4 -3.991826E-04  5.161778E-04  6.199606E-04 -1.098327E-03  2.073514E-03 -1.496395E-05 -2.491283E-04  2.028332E-04  3.400215E-04  2.192285E-04  1.698835E-04 -5.097007E-05  6.568236E+02  8.159068E+00
        38   1  4.740467E-05 -1.037674E-04 -2.379231E-04  2.932284E-04 -1.984977E-04 -1.900642E-04  2.591433E-05 -6.588081E-05 -4.744779E-05 -1.430879E-05 -5.178631E-05 -1.634647E-04  6.137920E+02  3.708177E+00
        38   2  1.460677E-04 -2.851864E-05 -3.582939E-04  7.536758E-04 -1.634750E-03  3.223146E-04 -1.614241E-05 -5.931515E-05 -3.192300E-04  1.137757E-04 -2.655988E-04  2.485402E-04  6.361080E+02  5.581728E+00
        38   3  2.172998E-04 -2.131247E-04 -1.719085E-04  2.357164E-04 -2.643710E-04 -1.491303E-04  3.044837E-05 -6.645571E-05 -7.869299E-06 -3.471431E-05 -2.345749E-04 -1.043312E-04  6.137920E+02  3.708177E+00
        38   4  4.503205E-04 -1.866204E-04 -4.552208E-05  5.203336E-04 -3.089434E-04  2.891684E-05 -3.532038E-05 -1.292408E-04 -2.700685E-04 -4.634381E-05 -2.616439E-04  2.340043E-04  6.361080E+02  5.581728E+00
        39   1 -1.226595E-03  1.209724E-03  4.488054E-04 -1.747374E-05 -2.012062E-04 -3.477201E-04 -4.110544E-04  4.889663E-04  1.877588E-04  2.673869E-04 -8.006394E-04 -1.600467E-04  6.637473E+02  9.262847E+00
        39   2 -1.829603E-03  1.047204E-03  6.093693E-04 -1.457707E-03  3.687940E-05 -7.847958E-04 -7.817765E-04  5.228022E-04  2.466568E-04  2.252923E-04 -8.477704E-04 -3.256616E-04  6.637473E+02  9.262847E+00
        39   3 -8.779820E-04 -1.370867E-04  8.431481E-04  4.860168E-04  3.450608E-03 -9.810166E-04 -5.412377E-04  2.968932E-04  6.916388E-04  7.547197E-04  1.686981E-03 -6.000466E-04  6.861527E+02  1.396576E+01
        39   4  1.476867E-03 -5.457376E-04  9.233015E-05  9.221128E-05  2.906715E-03 -8.256517E-04  6.067597E-04  9.463397E-05  4.308814E-04  2.848310E-04  1.619676E-03 -5.310907E-04  6.861527E+02  1.396576E+01
        40   1  1.172672E-03 -1.543438E-03 -2.589627E-03 -1.948236E-03  3.147223E-03 -9.292049E-05  3.366138E-04 -6.488575E-04 -1.666347E-03 -1.118889E-03  2.097846E-03 -1.243751E-04  6.930764E+02  1.585508E+01
        40   2  5.138219E-04 -1.723184E-03 -1.851938E-03 -2.642887E-03  3.336613E-03  1.049813E-04  1.767656E-04 -6.075938E-04 -1.389292E-03 -1.510334E-03  2.081720E-03 -1.085103E-04  6.930764E+02  1.585508E+01
        40   3  7.746329E-04 -1.323738E-03 -2.789402E-03 -2.334043E-03  3.946456E-03  8.714448E-05  4.289020E-04 -7.469144E-04 -1.683537E-03 -8.851412E-04  2.485374E-03 -1.655851E-04  6.930764E+02  1.585508E+01
        40   4 -4.865772E-04  8.981579E-04  1.398789E-03 -1.223694E-03  1.283456E-03 -8.343818E-04 -8.815791E-06  5.134647E-04  8.756189E-04  3.256537E-04 -1.043700E-04 -4.278245E-04  6.706709E+02  1.051595E+01
        41   1 -1.162751E-03  4.527194E-04  7.965409E-04 -1.771119E-04  2.398991E-03 -1.652271E-04 -3.230733E-04  1.037019E-04  4.150882E-04  9.207938E-04  4.827705E-04 -1.199631E-04  6.568236E+02  8.159068E+00
        41   2 -6.503874E-04  3.813518E-04  1.286315E-03  1.867173E-04  1.449417E-04 -2.847171E-04 -1.107835E-06  6.686224E-05  4.844733E-04  9.825836E-04 -1.657109E-04 -1.008474E-04  6.568236E+02  8.159068E+00
        41   3 -7.189121E-05 -4.645271E-05  1.281769E-03 -3.101232E-03 -2.853785E-04 -7.737140E-04  5.957459E-05  1.218805E-04  1.056460E-03 -8.926177E-04 -5.820740E-04 -3.838652E-04  6.792291E+02  1.230157E+01
        41   4  8.329580E-04  4.685506E-04  1.241840E-03  7.935441E-04  2.926761E-04 -2.138250E-04  1.382576E-04  5.114983E-05  5.043041E-04  6.513459E-04  1.519273E-06 -6.424737E-05  6.568236E+02  8.159068E+00
        42   1 -6.629422E-05  3.531749E-05 -2.040840E-05  1.185483E-04 -1.652066E-04  1.160393E-04  4.374513E-07  8.947181E-05  1.503250E-05 -1.843372E-04  9.679495E-05  2.998255E-05  6.068960E+02  3.267958E+00
        42   2  1.376060E-05  6.388231E-05  4.119921E-05 -1.838832E-04  1.461229E-05  7.319442E-05 -5.051211E-06  1.793992E-04  5.550457E-05 -2.356922E-04  2.055364E-04  2.146343E-05  6.068960E+02  3.267958E+00
        42   3  1.007095E-04  8.043961E-05 -1.437409E-04 -3.479660E-04 -1.579060E-04  1.162573E-05 -6.357050E-05  1.829540E-04  3.914494E-05 -2.435145E-04  1.073679E-04 -1.897665E-05  6.068960E+02  3.267958E+00
        42   4 -5.349646E-04 -1.345262E-04 -5.196220E-06  1.240286E-03 -1.453429E-03  1.261547E-05  3.557923E-05 -2.587615E-04 -1.306578E-04  2.542900E-04 -4.135184E-04  1.744215E-04  6.292120E+02  4.919089E+00
        43   1  1.431208E-04  1.561167E-04 -2.088534E-04 -1.691088E-04  7.452206E-06  1.143711E-04  6.331660E-05  1.149512E-04  6.672360E-05 -2.962676E-04  2.082219E-04  3.732275E-05  6.068960E+02  3.267958E+00
        43   2 -5.050734E-04 -1.520969E-04 -9.701874E-06  9.119687E-04 -1.797129E-03  4.092973E-05  5.464234E-05 -1.829173E-04 -2.189873E-04  5.935559E-05 -5.902468E-04  1.807251E-04  6.292120E+02  4.919089E+00
        43   3 -3.572558E-05  4.832031E-05 -9.937769E-05 -1.182336E-04 -4.071665E-04  9.719814E-05  1.658866E-05  4.864335E-05  2.651919E-05 -2.440650E-04  5.200101E-05  1.700319E-05  6.068960E+02  3.267958E+00
        43   4  1.312653E-04  5.635084E-05 -1.717199E-04 -7.000332E-05  1.148786E-04  6.647360E-06 -4.742610E-05  1.143289E-04  8.143246E-05 -1.930163E-04  1.727999E-04 -2.897542E-05  6.068960E+02  3.267958E+00
        44   1 -1.792186E-05 -1.254761E-04  1.654539E-04  1.466624E-03 -6.099133E-04 -9.319609E-05  3.041922E-04 -2.021020E-04 -1.869885E-04  3.881836E-04 -2.446886E-04  7.381338E-06  6.430040E+02  6.333629E+00
        44   2  8.325637E-05 -4.329414E-05 -3.574112E-04  1.019931E-04 -5.123365E-04  3.552749E-05  8.063718E-05  2.798789E-06 -2.396498E-04 -3.385720E-04 -1.980727E-04  1.000665E-04  6.206880E+02  4.207696E+00
        44   3  6.088730E-04 -4.624131E-05  1.257917E-04  7.549965E-04 -4.481489E-04 -2.182743E-05  4.559826E-05 -2.146045E-04 -1.706919E-04  4.453199E-04 -9.498332E-05  4.070925E-05  6.430040E+02  6.333629E+00
        44   4 -9.354982E-05 -5.375478E-05 -3.003448E-04  1.534825E-03 -1.352368E-03  1.545532E-05  2.898025E-04 -1.686188E-04 -2.548706E-04  4.224282E-04 -2.733348E-04 -7.769331E-06  6.430040E+02  6.333629E+00
        45   1 -6.503819E-04 -2.076870E-04  1.249956E-04  3.230168E-04 -1.630235E-03  1.104125E-04 -1.146266E-04 -3.345575E-04 -8.582807E-06  9.339750E-05 -7.237680E-04  8.421421E-05  6.361080E+02  5.581728E+00
        45   2  2.588605E-04 -8.560207E-05 -3.199373E-04  2.723818E-04 -4.450527E-04  8.299040E-05 -2.724435E-05  2.813450E-05 -1.115312E-04  9.481448E-05  4.197608E-05  8.792214E-05  6.137920E+02  3.708177E+00
        45   3 -8.772694E-05 -7.076887E-05 -1.201958E-04  2.427411E-04 -3.937749E-04  2.335001E-05  2.150839E-05  1.699983E-05 -9.449601E-05  8.217228E-05  7.220328E-05  5.746049E-05  6.137920E+02  3.708177E+00
        45   4 -7.116255E-04 -3.404586E-04  1.840611E-04  7.692947E-04 -1.709613E-03  8.223808E-05 -1.127246E-04 -3.123135E-04  2.735566E-05 -7.721498E-05 -7.231664E-04  1.055197E-04  6.361080E+02  5.581728E+00
        46   1  9.452322E-05 -2.910089E-04 -2.678785E-04  2.633662E-04 -5.739135E-04  1.179142E-04 -1.186064E-04 -1.871970E-04 -1.167337E-04  9.048150E-05 -2.308278E-04  8.311673E-05  6.206880E+02  4.207696E+00
        46   2  2.404091E-04 -5.521908E-05 -2.776804E-04  3.130281E-04 -1.776761E-03  1.619782E-04  6.577779E-05 -2.442687E-04 -1.867749E-04  8.619407E-05 -4.875906E-04  7.555442E-05  6.430040E+02  6.333629E+00
        46   3  6.455755E-04 -8.366487E-05  2.399452E-04  1.946201E-04 -1.000506E-03  2.259547E-04  1.505213E-04 -2.872094E-04 -9.431716E-05 -3.725200E-06 -3.542609E-04  7.583317E-05  6.430040E+02  6.333629E+00
        46   4  3.250540E-04 -1.966051E-04 -2.136548E-04  7.988814E-04 -2.014565E-03  1.293390E-04  1.738119E-04 -2.193718E-04 -1.864469E-04 -4.195532E-05 -5.540291E-04  4.083929E-05  6.430040E+02  6.333629E+00
        47   1 -2.315654E-03  9.725731E-04  1.508929E-03  2.480535E-04 -3.581398E-04 -1.273720E-04 -6.089844E-04  4.193529E-04  8.073005E-04  9.961832E-04 -8.323337E-04  1.504454E-04  6.706709E+02  1.051595E+01
        47   2  4.103397E-04 -3.266662E-04 -2.468150E-03 -3.263150E-03  3.995207E-03 -4.014774E-04  3.229820E-04 -1.264559E-04 -1.545523E-03 -1.438484E-03  2.449241E-03 -4.380040E-04  6.930764E+02  1.585508E+01
        47   3 -1.056006E-03 -1.998248E-04 -4.978894E-04 -2.299985E-03  3.395763E-03  9.539273E-07 -5.863911E-04 -2.969605E-05 -3.534315E-04 -9.634888E-04  2.195658E-03  1.506073E-05  6.930764E+02  1.585508E+01
        47   4 -1.357034E-05 -1.560237E-03 -6.239995E-04 -2.572718E-03  4.124462E-03 -4.491925E-04 -2.411369E-04 -5.992573E-04 -4.581309E-04 -1.137064E-03  2.522095E-03 -5.558579E-04  6.930764E+02  1.585508E+01
        48   1  1.236948E-03  2.011934E-04  1.724692E-03 -9.622192E-04 -6.625791E-04 -9.769235E-04  2.983716E-04  1.418457E-04  8.690105E-04 -6.420070E-06 -2.645878E-04 -2.642304E-04  6.637473E+02  9.262847E+00
        48   2  6.497926E-04  2.469909E-04 -1.000363E-03 -4.473094E-04 -9.459775E-04  8.039059E-04  1.079880E-04  5.476411E-04 -2.651774E-04 -6.545360E-05 -6.085291E-04  4.946440E-04  6.861527E+02  1.396576E+01
        48   3  1.040553E-04  4.632056E-04 -7.133687E-04 -8.843075E-04  2.091579E-04  9.241716E-04  1.752099E-04  4.526182E-04 -1.104120E-04  1.834978E-04 -9.423662E-05  4.786190E-04  6.861527E+02  1.396576E+01
        48   4  3.766224E-04  2.839979E-04  1.023574E-03 -7.127435E-04  2.375062E-03 -1.070807E-03  9.785434E-05  7.713215E-05  6.255526E-04  4.450199E-04  3.594518E-04 -5.961267E-04  6.637473E+02  9.262847E+00

 volume (element, volume) for set EALL and time  0.1900000E+02

        37  2.087500E+07
        38  2.079167E+07
        39  2.087500E+07
        40  2.087500E+07
        41  2.087500E+07
        42  2.079167E+07
        43  2.079167E+07
        44  2.079167E+07
        45  2.079167E+07
        46  2.079167E+07
        47  2.087500E+07
        48  2.087500E+07

 displacements (vx,vy,vz) for set NALL and time  0.2000000E+02

         1 -8.173817E+00 -9.070107E-01 -1.316810E-01
         2 -4.572790E+00 -7.765733E-01  0.000000E+00
         3 -3.896785E+00  0.000000E+00 -2.708420E-01
         4  0.000000E+00  0.000000E+00  0.000000E+00
         5  1.471263E+01 -1.489790E+01  7.708561E+00
         6  1.581982E+01 -1.546204E+01  0.000000E+00
         7  1.771072E+01  0.000000E+00  8.328449E+00
         8  1.789418E+01  0.000000E+00  0.000000E+00
         9  7.598336E-01 -1.050281E+01  0.000000E+00
        10  4.840754E+00  0.000000E+00  0.000000E+00
        11 -2.342439E+00 -1.048168E+01  8.663421E+00
        12  1.902794E+00  0.000000E+00  8.502352E+00
        13  1.733587E+01 -7.768732E+00  0.000000E+00
        14  7.510265E+00 -1.424356E+01  0.000000E+00
        15 -3.187860E+00 -5.448057E+00  0.000000E+00
        16 -1.124530E+00 -4.240766E-01  0.000000E+00
        17  1.074584E+01  0.000000E+00  0.000000E+00
        18  1.284679E+00  0.000000E+00  0.000000E+00
        19  1.619011E+01 -7.818960E+00  7.812617E+00
        20  6.710739E+00 -1.373822E+01  9.789156E+00
        21 -6.471457E+00 -5.454644E+00  3.981277E+00
        22 -5.008120E+00 -4.583279E-01 -2.097907E-01
        23  9.401802E+00  0.000000E+00  1.013571E+01
        24 -2.324673E+00  0.000000E+00  3.924872E+00
        25 -5.479329E+00 -8.554713E-01 -2.009268E-02
        26  1.427400E+01 -1.499926E+01  4.425298E+00
        27 -8.569690E-01  0.000000E+00 -7.194489E-02
        28  1.745480E+01  0.000000E+00  4.358825E+00
        29  9.960014E+00 -6.946176E+00  0.000000E+00
        30  3.927435E+00 -5.232010E+00  0.000000E+00
        31  2.703276E-01 -2.777029E+00  0.000000E+00
        32  8.735551E+00 -6.776034E+00  9.839402E+00
        33 -3.364978E+00 -2.756522E+00  3.947999E+00
        34  8.946696E-01 -5.206493E+00  8.583768E+00
        35  7.138443E+00 -1.392385E+01  4.840529E+00
        36 -3.889470E+00 -5.459099E+00  2.063673E+00
        37  9.757990E-02 -1.045635E+01  4.212604E+00
        38  1.044930E+01  0.000000E+00  5.214395E+00
        39  4.785614E-01  0.000000E+00  1.972729E+00
        40  4.246056E+00  0.000000E+00  4.118208E+00
        41 -2.106106E+00 -4.476875E-01 -4.171005E-02
        42  1.620303E+01 -7.839076E+00  4.450264E+00
        43  3.170111E+00 -5.224246E+00  4.231637E+00
        44  9.505155E+00 -7.002598E+00  5.000939E+00
        45 -5.448953E-01 -2.768542E+00  2.028728E+00

 stresses (elem, integ.pnt.,sxx,syy,szz,sxy,sxz,syz) for set EALL and time  0.2000000E+02

        37   1  3.597738E+00  4.034319E+00  5.009320E+00 -2.396287E-01  3.336119E-01  9.195819E-02
        37   2  5.727806E-01  3.133163E+00  2.212030E+00 -1.802045E-01  1.605738E+00  2.132734E-02
        37   3  5.347198E+00  2.440580E+00  1.476106E+00 -1.799240E-02 -1.598568E-01 -2.913682E-01
        37   4 -5.699525E-01  2.153905E+00  2.216243E+00 -1.230187E+00  2.010063E+00  1.346166E-02
        38   1 -2.308022E-01 -6.205631E-01 -2.091609E+00  7.566511E-01 -3.300319E-01  2.318375E-02
        38   2  1.046338E+00  2.331487E-01 -4.162300E-01  9.732754E-01 -2.082694E+00  1.679557E-01
        38   3  1.512732E+00 -1.523689E+00 -1.779733E+00  6.741199E-01  5.011049E-02 -5.232388E-02
        38   4  3.537791E+00  2.614777E-01  1.729421E+00  8.257790E-01 -1.312391E-01 -2.470885E-01
        39   1 -3.541272E+00  3.847447E+00  1.528424E+00 -1.276519E-01  1.515823E-01 -2.499089E-01
        39   2 -5.494152E+00  2.817398E+00  1.619702E+00 -1.426232E+00  3.849501E-01 -5.804914E-01
        39   3 -2.236685E+00 -7.871982E-01  1.628041E+00  2.043429E-01  2.114493E+00 -5.734746E-01
        39   4  4.113663E+00 -1.167846E+00  3.573328E-01  1.271011E-02  1.747252E+00 -4.803956E-01
        40   1  1.448268E+00 -5.078558E+00 -7.068779E+00 -1.116702E+00  1.771059E+00 -4.294520E-02
        40   2 -2.591271E-01 -5.644655E+00 -5.416136E+00 -1.514469E+00  1.898031E+00  8.451502E-02
        40   3  1.612140E-01 -4.662787E+00 -7.769875E+00 -1.400707E+00  2.236274E+00  8.053978E-02
        40   4 -6.714627E-01  3.220441E+00  4.306098E+00 -1.123361E+00  1.104547E+00 -5.578506E-01
        41   1 -4.002272E+00  1.595447E+00  2.250103E+00 -6.769286E-01  2.168733E+00 -1.009868E-01
        41   2 -1.999392E+00  2.029799E+00  4.665089E+00 -3.491426E-01  2.390817E-01 -2.328178E-01
        41   3  2.313775E-01  2.407223E-01  3.266408E+00 -2.126273E+00 -7.733899E-02 -4.871540E-01
        41   4  4.937578E+00  3.673150E+00  5.664630E+00  4.504471E-01  2.979844E-01 -1.811963E-01
        42   1 -1.247645E+00 -1.456790E+00 -9.179562E-01  1.060513E+00 -8.551428E-01  2.192744E-01
        42   2 -2.333955E-01 -2.516952E+00 -8.272915E-01  3.845921E-01 -7.563547E-01  1.295252E-01
        42   3  1.716430E+00 -2.344834E+00 -2.626879E+00 -6.105039E-02 -8.760644E-01  1.076612E-01
        42   4 -4.342617E+00  2.561174E-01  2.988569E-01  1.698872E+00 -1.804726E+00 -2.606396E-01
        43   1  7.880335E-02 -5.688190E-01 -3.926782E+00  6.649828E-01 -7.871247E-01  1.869380E-01
        43   2 -4.260570E+00 -3.468462E-01  8.221409E-01  1.457276E+00 -2.102279E+00 -2.228148E-01
        43   3 -1.189136E+00 -7.174892E-01 -2.021504E+00  6.079560E-01 -1.381155E+00  2.150216E-01
        43   4  1.799425E+00 -1.576743E+00 -3.599339E+00  5.478484E-01 -3.406208E-01  1.321297E-01
        44   1 -1.138669E+00  2.050303E-01  1.601400E+00  1.528523E+00 -5.555720E-01 -1.277838E-01
        44   2 -3.038671E-01 -6.475788E-01 -1.026206E+00  9.773071E-01 -6.059875E-01 -1.521703E-01
        44   3  3.984649E+00  1.597265E+00  2.254133E+00  5.566772E-01 -4.871735E-01 -6.778313E-02
        44   4 -1.946161E+00 -3.187897E-02 -9.436908E-01  1.584713E+00 -1.493219E+00  2.559946E-02
        45   1 -3.692593E+00 -2.158648E-02  3.221430E-01  3.615393E-01 -1.512999E+00  5.811632E-02
        45   2  2.810713E+00 -1.197542E+00 -1.763855E+00  3.806444E-01 -1.207070E+00 -5.913965E-02
        45   3 -1.540055E+00 -1.336361E+00 -4.759589E-01  3.458197E-01 -1.171379E+00 -1.141265E-01
        45   4 -4.296003E+00 -1.139789E+00  2.620160E-01  1.231393E+00 -1.630594E+00 -1.007429E-02
        46   1  1.835773E+00 -7.222121E-01 -1.141222E+00  3.372497E-01 -6.601694E-01  5.451443E-02
        46   2  1.174272E+00  8.256826E-01 -5.190337E-01  3.233176E-01 -1.836319E+00  1.374379E-01
        46   3  3.816265E+00  1.719830E+00  2.581439E+00  2.542638E-01 -9.585706E-01  2.196118E-01
        46   4  1.108342E+00 -9.142798E-02 -2.959861E-01  1.073103E+00 -2.081567E+00  1.283405E-01
        47   1 -6.938810E+00  2.626331E+00  3.809370E+00 -1.155744E-01 -2.793062E-02 -1.502589E-01
        47   2 -2.697339E-01 -1.953243E+00 -6.582115E+00 -1.933475E+00  2.275362E+00 -2.016219E-01
        47   3 -3.300595E+00 -1.369768E+00 -1.921238E+00 -1.370729E+00  1.923314E+00 -1.811518E-03
        47   4 -9.799745E-01 -4.804807E+00 -2.387764E+00 -1.521640E+00  2.354126E+00 -2.163486E-01
        48   1  6.012936E+00  2.511123E+00  6.680543E+00 -8.790162E-01 -4.953576E-01 -7.831961E-01
        48   2  1.596883E+00  1.533764E-01 -2.679030E+00 -3.011338E-01 -5.486990E-01  4.740423E-01
        48   3 -3.902343E-03  7.800717E-01 -2.049083E+00 -6.489226E-01  1.660329E-01  5.644461E-01
        48   4  2.248025E+00  1.927533E+00  3.628830E+00 -8.388632E-01  2.022703E+00 -7.331080E-01

 internal state variables (elem, integ.pnt.,values) for set EALL and time  0.2000000E+02

        37   1  5.948408E-04  8.074141E-04  1.303148E-03 -2.821829E-04  3.421628E-04  1.101220E-04  2.874764E-05  2.264237E-04  5.895829E-04  7.040908E-06 -1.245051E-04  2.837730E-06  6.568236E+02  8.612350E+00
        37   2 -1.427770E-04  8.253747E-04  6.285306E-04 -1.622774E-04  2.034653E-03  2.120261E-05 -1.832653E-04  2.743917E-04  4.070183E-04  1.177716E-04  2.678464E-04 -8.508796E-06  6.568236E+02  8.612350E+00
        37   3  1.840287E-03  6.512843E-04  2.502086E-04  6.958716E-06 -3.505349E-04 -5.618625E-04  8.186361E-04  6.719232E-04  5.285347E-04  1.445196E-04 -4.000633E-04 -4.194314E-04  6.792291E+02  1.298499E+01
        37   4 -4.540974E-04  6.162508E-04  7.170787E-04 -1.465647E-03  2.628654E-03 -6.643020E-06 -2.966071E-04  2.750156E-04  4.181513E-04  8.331758E-06  5.166890E-04 -4.889705E-05  6.568236E+02  8.612350E+00
        38   1  5.245614E-05 -1.082229E-04 -3.155570E-04  4.354762E-04 -2.550039E-04 -1.703418E-04  2.915825E-05 -7.065320E-05 -8.216741E-05  4.490507E-05 -7.783835E-05 -1.623721E-04  6.137920E+02  3.914187E+00
        38   2  2.037786E-04 -1.551992E-05 -3.602148E-04  9.761074E-04 -2.108314E-03  3.387432E-04  1.144348E-05 -5.595367E-05 -3.365596E-04  2.289532E-04 -5.122156E-04  2.694287E-04  6.361080E+02  5.891824E+00
        38   3  2.963142E-04 -2.667843E-04 -2.453894E-04  3.645064E-04 -2.328316E-04 -1.490175E-04  6.501868E-05 -9.195505E-05 -3.908780E-05  1.797908E-05 -2.316069E-04 -1.088918E-04  6.137920E+02  3.914187E+00
        38   4  6.225054E-04 -2.023306E-04  4.320640E-05  7.226689E-04 -3.152558E-04 -5.267341E-05  4.765837E-05 -1.435695E-04 -2.401979E-04  5.075441E-05 -2.782649E-04  2.059357E-04  6.361080E+02  5.891824E+00
        39   1 -1.474223E-03  1.437778E-03  5.320995E-04 -7.709924E-05 -9.098765E-05 -4.084478E-04 -5.986280E-04  6.678845E-04  2.536435E-04  2.436340E-04 -7.747252E-04 -2.096618E-04  6.637473E+02  9.777450E+00
        39   2 -2.163796E-03  1.223754E-03  7.222342E-04 -1.898166E-03  2.195222E-04 -9.298726E-04 -1.048346E-03  6.698421E-04  3.360264E-04 -5.255380E-05 -7.762938E-04 -4.406540E-04  6.637473E+02  9.777450E+00
        39   3 -1.011871E-03 -2.070087E-04  9.497328E-04  5.043277E-04  4.032765E-03 -1.128141E-03 -6.961753E-04  2.533227E-04  8.317347E-04  8.184248E-04  2.318031E-03 -7.721873E-04  6.861527E+02  1.474164E+01
        39   4  1.738821E-03 -6.831929E-04  5.861579E-05  7.799389E-05  3.373794E-03 -9.477580E-04  8.819067E-04 -2.311315E-05  4.282795E-04  2.899233E-04  2.142041E-03 -6.752903E-04  6.861527E+02  1.474164E+01
        40   1  1.391123E-03 -1.808624E-03 -2.979192E-03 -2.251910E-03  3.612484E-03 -9.972234E-05  5.793682E-04 -9.593592E-04 -2.164990E-03 -1.498301E-03  2.700555E-03 -1.393737E-04  6.930764E+02  1.673592E+01
        40   2  6.058541E-04 -2.031506E-03 -2.110127E-03 -3.054692E-03  3.845150E-03  1.394965E-04  2.816459E-04 -9.591965E-04 -1.737663E-03 -2.024968E-03  2.726860E-03 -8.074665E-05  6.930764E+02  1.673592E+01
        40   3  8.989204E-04 -1.531828E-03 -3.220690E-03 -2.744925E-03  4.541889E-03  1.235898E-04  5.811883E-04 -1.005417E-03 -2.225352E-03 -1.358668E-03  3.245988E-03 -1.393959E-04  6.930764E+02  1.673592E+01
        40   4 -6.067523E-04  1.036268E-03  1.602329E-03 -1.593323E-03  1.630765E-03 -9.729446E-04 -9.716914E-05  6.446574E-04  1.075537E-03  7.777405E-05  1.402337E-04 -5.536102E-04  6.706709E+02  1.110017E+01
        41   1 -1.418656E-03  5.583066E-04  9.263677E-04 -4.479257E-04  2.971969E-03 -1.833635E-04 -4.969863E-04  1.736238E-04  5.173447E-04  8.082473E-04  8.582894E-04 -1.379101E-04  6.568236E+02  8.612350E+00
        41   2 -8.375143E-04  4.753874E-04  1.541502E-03  2.701214E-06  2.271671E-04 -3.419582E-04 -1.147137E-04  1.276522E-04  6.665063E-04  9.269511E-04 -1.253513E-04 -1.414203E-04  6.568236E+02  8.612350E+00
        41   3 -9.733409E-05 -7.592605E-05  1.436356E-03 -3.716168E-03 -2.690039E-04 -9.008640E-04  4.233479E-05  1.056785E-04  1.247678E-03 -1.448845E-03 -6.049183E-04 -5.124329E-04  6.792291E+02  1.298499E+01
        41   4  1.038101E-03  5.918256E-04  1.479166E-03  8.653460E-04  3.772649E-04 -2.596109E-04  2.709430E-04  1.287119E-04  6.766886E-04  7.318604E-04  5.278370E-05 -9.575630E-05  6.568236E+02  8.612350E+00
        42   1 -9.926330E-05 -1.476163E-05 -4.173104E-05  3.158678E-04 -3.194572E-04  1.505809E-04 -1.293207E-05  7.286163E-05  6.996605E-06 -1.118846E-04  3.818460E-05  4.525615E-05  6.068960E+02  3.449511E+00
        42   2  2.432551E-05 -3.996939E-05  1.986689E-05 -9.678606E-05 -1.328602E-04  9.323176E-05 -9.704007E-07  1.446994E-04  4.914014E-05 -2.101331E-04  1.541928E-04  3.048343E-05  6.068960E+02  3.449511E+00
        42   3  1.983018E-04 -1.790258E-05 -2.439991E-04 -3.359812E-04 -3.167258E-04  3.166439E-05 -2.659223E-05  1.506374E-04  6.146889E-08 -2.487694E-04  4.735289E-05 -1.163001E-05  6.068960E+02  3.449511E+00
        42   4 -7.539361E-04 -6.757101E-05  5.216136E-05  1.594953E-03 -1.816227E-03 -6.241580E-05 -6.464280E-05 -2.403155E-04 -1.103526E-04  4.319157E-04 -6.027749E-04  1.480976E-04  6.292120E+02  5.192372E+00
        43   1  1.658413E-04  1.464845E-04 -3.619794E-04 -2.879254E-05 -1.455745E-04  1.427455E-04  7.517900E-05  1.158159E-04  7.321277E-06 -2.516349E-04  1.547349E-04  5.038726E-05  6.068960E+02  3.449511E+00
        43   2 -7.214247E-04 -1.263881E-04  8.619654E-05  1.231561E-03 -2.209258E-03 -2.630113E-05 -4.341917E-05 -1.799449E-04 -1.850796E-04  2.109992E-04 -8.112151E-04  1.583503E-04  6.292120E+02  5.192372E+00
        43   3 -6.581753E-05  3.541068E-05 -1.682702E-04  7.579152E-06 -6.467984E-04  1.322183E-04  5.059632E-06  4.542763E-05 -3.535084E-07 -2.031378E-04 -4.314340E-05  3.193249E-05  6.068960E+02  3.449511E+00
        43   4  2.317337E-04 -2.085906E-06 -3.176691E-04  4.093824E-05  4.114103E-05  3.178147E-05 -8.608052E-06  9.535829E-05  2.555759E-05 -1.559954E-04  1.500521E-04 -1.997637E-05  6.068960E+02  3.449511E+00
        44   1 -1.252903E-04 -9.939220E-05  2.823628E-04  1.820746E-03 -7.288213E-04 -1.265348E-04  2.642084E-04 -1.992291E-04 -1.357625E-04  5.942192E-04 -3.200599E-04 -9.651168E-06  6.430040E+02  6.685498E+00
        44   2  7.334990E-05 -6.318869E-05 -3.747794E-04  3.325928E-04 -6.160382E-04 -4.943688E-06  8.003705E-05 -5.774461E-06 -2.583221E-04 -2.531943E-04 -2.527956E-04  8.695250E-05  6.206880E+02  4.441457E+00
        44   3  7.937790E-04  1.014693E-05  2.241056E-04  8.556875E-04 -5.634946E-04 -4.300902E-05  1.449117E-04 -1.965380E-04 -1.283168E-04  5.217118E-04 -1.605360E-04  3.185749E-05  6.430040E+02  6.685498E+00
        44   4 -2.206606E-04 -1.543669E-05 -3.139639E-04  1.900245E-03 -1.708604E-03  2.262898E-05  2.386555E-04 -1.575186E-04 -2.756475E-04  6.361652E-04 -4.741185E-04 -4.346640E-06  6.430040E+02  6.685498E+00
        45   1 -8.346728E-04 -1.505605E-04  1.721643E-04  4.007229E-04 -1.923538E-03  1.162196E-04 -2.112590E-04 -3.236086E-04  1.422441E-05  1.364077E-04 -9.051952E-04  9.143447E-05  6.361080E+02  5.891824E+00
        45   2  3.939228E-04 -1.429720E-04 -3.928201E-04  3.342788E-04 -6.736697E-04  6.366211E-05  2.837514E-05  5.260484E-06 -1.471052E-04  1.250470E-04 -5.238220E-05  8.366550E-05  6.137920E+02  3.914187E+00
        45   3 -1.411569E-04 -1.142901E-04 -1.136025E-04  2.993471E-04 -6.186114E-04 -3.361103E-06 -4.162697E-08 -5.324270E-07 -9.587847E-05  1.096244E-04 -1.923984E-05  4.876026E-05  6.137920E+02  3.914187E+00
        45   4 -9.184192E-04 -3.386108E-04  2.380808E-04  1.071896E-03 -2.031131E-03  6.967078E-05 -2.203125E-04 -3.274563E-04  5.537519E-05  6.758687E-05 -9.184506E-04  1.048082E-04  6.361080E+02  5.891824E+00
        46   1  1.996543E-04 -3.093821E-04 -3.159599E-04  3.230043E-04 -6.854734E-04  1.209494E-04 -7.800148E-05 -2.039015E-04 -1.431678E-04  1.208575E-04 -2.904939E-04  8.832091E-05  6.206880E+02  4.441457E+00
        46   2  2.971628E-04  8.287813E-06 -3.066058E-04  3.875971E-04 -2.200289E-03  1.899410E-04  9.908060E-05 -2.240869E-04 -2.119231E-04  1.298009E-04 -7.352032E-04  9.425630E-05  6.430040E+02  6.685498E+00
        46   3  8.074928E-04 -1.501123E-05  3.501833E-04  2.599146E-04 -1.212217E-03  2.748541E-04  2.434099E-04 -2.666550E-04 -4.159168E-05  3.027048E-05 -4.839556E-04  1.055185E-04  6.430040E+02  6.685498E+00
        46   4  3.737829E-04 -1.878445E-04 -2.216457E-04  1.077266E-03 -2.494531E-03  1.582432E-04  2.086567E-04 -2.265454E-04 -2.006098E-04  1.013588E-04 -8.346924E-04  5.816372E-05  6.430040E+02  6.685498E+00
        47   1 -2.798521E-03  1.146160E-03  1.752295E-03  1.359863E-04 -3.025420E-04 -1.843066E-04 -9.955346E-04  5.705720E-04  1.032027E-03  9.751859E-04 -8.424818E-04  1.176106E-04  6.706709E+02  1.110017E+01
        47   2  4.674680E-04 -3.840505E-04 -2.843748E-03 -3.818819E-03  4.606433E-03 -4.426925E-04  4.001396E-04 -1.926804E-04 -2.022512E-03 -2.092938E-03  3.222653E-03 -5.075764E-04  6.930764E+02  1.673592E+01
        47   3 -1.224388E-03 -2.397200E-04 -5.697988E-04 -2.697539E-03  3.906885E-03 -6.384007E-07 -7.935692E-04 -7.213863E-05 -4.480967E-04 -1.427149E-03  2.849642E-03  1.454451E-05  6.930764E+02  1.673592E+01
        47   4  7.995517E-06 -1.834497E-03 -7.124421E-04 -3.008956E-03  4.758957E-03 -4.884174E-04 -2.342312E-04 -9.156333E-04 -5.760960E-04 -1.652296E-03  3.321937E-03 -6.309214E-04  6.930764E+02  1.673592E+01
        48   1  1.509870E-03  2.273574E-04  2.015468E-03 -1.222056E-03 -7.876643E-04 -1.187279E-03  4.962483E-04  1.671812E-04  1.111181E-03 -1.782095E-04 -3.626499E-04 -4.185584E-04  6.637473E+02  9.777450E+00
        48   2  7.835664E-04  2.344364E-04 -1.199311E-03 -5.412388E-04 -1.085005E-03  9.268661E-04  2.363688E-04  5.713733E-04 -4.600541E-04 -1.545573E-04 -7.733981E-04  6.366547E-04  6.861527E+02  1.474164E+01
        48   3  1.069917E-04  5.112814E-04 -8.657217E-04 -1.106665E-03  2.699845E-04  1.078565E-03  1.884600E-04  5.254406E-04 -2.535244E-04 -7.150694E-06 -4.588872E-05  6.470296E-04  6.861527E+02  1.474164E+01
        48   4  4.592487E-04  3.439956E-04  1.173354E-03 -9.974423E-04  2.944559E-03 -1.239548E-03  1.579258E-04  1.215627E-04  7.607121E-04  2.831116E-04  7.564778E-04 -7.420513E-04  6.637473E+02  9.777450E+00

 volume (element, volume) for set EALL and time  0.2000000E+02

        37  2.087500E+07
        38  2.079167E+07
        39  2.087500E+07
        40  2.087500E+07
        41  2.087500E+07
        42  2.079167E+07
        43  2.079167E+07
        44  2.079167E+07
        45  2.079167E+07
        46  2.079167E+07
        47  2.087500E+07
        48  2.087500E+07

 displacements (vx,vy,vz) for set NALL and time  0.2100000E+02

         1 -7.930920E+00 -1.381825E+00  3.942385E-01
         2 -4.587224E+00 -1.202761E+00  0.000000E+00
         3 -3.796735E+00  0.000000E+00  2.074234E-01
         4  0.000000E+00  0.000000E+00  0.000000E+00
         5  1.636710E+01 -1.393335E+01  5.887400E+00
         6  1.668121E+01 -1.456414E+01  0.000000E+00
         7  1.884646E+01  0.000000E+00  6.577408E+00
         8  1.798518E+01  0.000000E+00  0.000000E+00
         9  1.351271E+00 -1.106361E+01  0.000000E+00
        10  5.189938E+00  0.000000E+00  0.000000E+00
        11 -1.379538E+00 -1.105790E+01  9.162462E+00
        12  2.662185E+00  0.000000E+00  8.977909E+00
        13  1.762648E+01 -7.337733E+00  0.000000E+00
        14  8.423029E+00 -1.432295E+01  0.000000E+00
        15 -2.946514E+00 -5.977210E+00  0.000000E+00
        16 -1.112679E+00 -6.492006E-01  0.000000E+00
        17  1.116434E+01  0.000000E+00  0.000000E+00
        18  1.450658E+00  0.000000E+00  0.000000E+00
        19  1.728590E+01 -7.418944E+00  6.002456E+00
        20  8.447690E+00 -1.372505E+01  9.387819E+00
        21 -5.948070E+00 -5.951846E+00  4.462941E+00
        22 -4.856413E+00 -7.088413E-01  2.901203E-01
        23  1.060390E+01  0.000000E+00  9.799409E+00
        24 -1.958901E+00  0.000000E+00  4.426698E+00
        25 -5.396254E+00 -1.306171E+00  2.635127E-01
        26  1.508588E+01 -1.404496E+01  3.623692E+00
        27 -7.928148E-01  0.000000E+00  1.866532E-01
        28  1.774321E+01  0.000000E+00  3.528511E+00
        29  1.049848E+01 -6.961776E+00  0.000000E+00
        30  4.349644E+00 -5.504936E+00  0.000000E+00
        31  4.841932E-01 -3.047014E+00  0.000000E+00
        32  1.004534E+01 -6.755927E+00  9.450412E+00
        33 -2.954133E+00 -3.014547E+00  4.446180E+00
        34  1.710118E+00 -5.481156E+00  9.072111E+00
        35  8.197297E+00 -1.394760E+01  4.634753E+00
        36 -3.552034E+00 -5.979067E+00  2.321971E+00
        37  7.950306E-01 -1.101034E+01  4.429436E+00
        38  1.106802E+01  0.000000E+00  5.075929E+00
        39  7.166423E-01  0.000000E+00  2.228734E+00
        40  4.720488E+00  0.000000E+00  4.321063E+00
        41 -2.036701E+00 -6.954992E-01  2.383549E-01
        42  1.654120E+01 -7.435614E+00  3.647230E+00
        43  3.694914E+00 -5.496743E+00  4.457670E+00
        44  1.020371E+01 -7.027583E+00  4.826171E+00
        45 -2.590789E-01 -3.033289E+00  2.284824E+00

 stresses (elem, integ.pnt.,sxx,syy,szz,sxy,sxz,syz) for set EALL and time  0.2100000E+02

        37   1  4.085452E+00  4.557369E+00  5.611445E+00 -2.762484E-01  3.908057E-01  1.057994E-01
        37   2  6.698931E-01  3.525842E+00  2.443840E+00 -2.132931E-01  1.834482E+00  2.506097E-02
        37   3  5.966867E+00  2.639267E+00  1.553780E+00 -2.626027E-02 -1.685998E-01 -3.204129E-01
        37   4 -6.132406E-01  2.404639E+00  2.451783E+00 -1.414838E+00  2.286918E+00  1.818066E-02
        38   1 -2.636810E-01 -6.727419E-01 -2.360311E+00  8.631761E-01 -3.710869E-01  4.463943E-02
        38   2  1.221890E+00  3.066354E-01 -3.600557E-01  1.101473E+00 -2.354921E+00  1.732070E-01
        38   3  1.713481E+00 -1.705662E+00 -2.026770E+00  7.704230E-01  8.077401E-02 -4.795994E-02
        38   4  4.067149E+00  3.613796E-01  2.075005E+00  9.450451E-01 -1.304606E-01 -2.993930E-01
        39   1 -3.975466E+00  4.288968E+00  1.701015E+00 -1.578427E-01  2.112447E-01 -2.773814E-01
        39   2 -6.125663E+00  3.117076E+00  1.797054E+00 -1.637316E+00  4.776383E-01 -6.470107E-01
        39   3 -2.496695E+00 -9.581790E-01  1.755808E+00  2.097959E-01  2.360035E+00 -6.326419E-01
        39   4  4.581312E+00 -1.382582E+00  3.159418E-01  5.369767E-03  1.944328E+00 -5.302565E-01
        40   1  1.655531E+00 -5.659673E+00 -7.831961E+00 -1.238996E+00  1.960291E+00 -4.517261E-02
        40   2 -2.755708E-01 -6.311311E+00 -5.981444E+00 -1.679655E+00  2.105442E+00  9.950621E-02
        40   3  1.875586E-01 -5.176295E+00 -8.627393E+00 -1.568189E+00  2.477004E+00  9.637392E-02
        40   4 -8.008166E-01  3.533279E+00  4.721689E+00 -1.294600E+00  1.265500E+00 -6.187823E-01
        41   1 -4.502013E+00  1.792187E+00  2.481349E+00 -8.185341E-01  2.452178E+00 -1.088359E-01
        41   2 -2.301311E+00  2.280441E+00  5.210993E+00 -4.504000E-01  2.824990E-01 -2.600226E-01
        41   3  2.182755E-01  2.142302E-01  3.535773E+00 -2.393788E+00 -6.688590E-02 -5.390133E-01
        41   4  5.570919E+00  4.151655E+00  6.339101E+00  4.798117E-01  3.407962E-01 -2.031582E-01
        42   1 -1.431580E+00 -1.712748E+00 -1.063393E+00  1.229260E+00 -9.863049E-01  2.458413E-01
        42   2 -2.887720E-01 -2.975732E+00 -9.906562E-01  4.660431E-01 -8.864262E-01  1.453871E-01
        42   3  1.969246E+00 -2.774237E+00 -3.025975E+00 -4.010533E-02 -1.011222E+00  1.251014E-01
        42   4 -4.932383E+00  3.969777E-01  4.047349E-01  1.914150E+00 -2.023359E+00 -3.113198E-01
        43   1  3.379716E-02 -7.287440E-01 -4.528486E+00  7.936055E-01 -9.206406E-01  2.083723E-01
        43   2 -4.845016E+00 -3.126323E-01  1.027016E+00  1.655692E+00 -2.347161E+00 -2.684995E-01
        43   3 -1.371058E+00 -8.503155E-01 -2.324601E+00  7.219719E-01 -1.578997E+00  2.423930E-01
        43   4  2.057301E+00 -1.865475E+00 -4.153377E+00  6.465382E-01 -4.099822E-01  1.539501E-01
        44   1 -1.370494E+00  2.916086E-01  1.883229E+00  1.718755E+00 -6.174961E-01 -1.466198E-01
        44   2 -3.643228E-01 -7.291791E-01 -1.073402E+00  1.146183E+00 -6.712852E-01 -1.823943E-01
        44   3  4.551453E+00  1.897122E+00  2.635752E+00  6.057197E-01 -5.496457E-01 -8.055473E-02
        44   4 -2.283154E+00  1.432163E-02 -1.003161E+00  1.779679E+00 -1.686151E+00  2.901769E-02
        45   1 -4.149266E+00  1.012375E-01  3.970261E-01  4.054413E-01 -1.673088E+00  6.010323E-02
        45   2  3.224163E+00 -1.369755E+00 -1.956388E+00  4.231514E-01 -1.380075E+00 -7.679803E-02
        45   3 -1.759254E+00 -1.528347E+00 -4.998172E-01  3.847656E-01 -1.342397E+00 -1.359797E-01
        45   4 -4.841283E+00 -1.183663E+00  3.142732E-01  1.408763E+00 -1.807200E+00 -1.946582E-02
        46   1  2.167776E+00 -7.222887E-01 -1.230420E+00  3.752687E-01 -7.302253E-01  5.420749E-02
        46   2  1.339459E+00  1.026901E+00 -5.243277E-01  3.630755E-01 -2.063584E+00  1.520323E-01
        46   3  4.323517E+00  2.052124E+00  2.984112E+00  2.898429E-01 -1.070761E+00  2.458465E-01
        46   4  1.231052E+00 -3.255586E-02 -2.763531E-01  1.225635E+00 -2.339602E+00  1.440370E-01
        47   1 -7.826545E+00  2.897800E+00  4.191544E+00 -1.738268E-01  4.004618E-03 -1.755312E-01
        47   2 -3.043590E-01 -2.176979E+00 -7.303047E+00 -2.160126E+00  2.523470E+00 -2.174040E-01
        47   3 -3.672887E+00 -1.532845E+00 -2.130590E+00 -1.533324E+00  2.132280E+00 -2.629666E-03
        47   4 -1.060831E+00 -5.369072E+00 -2.642741E+00 -1.698674E+00  2.613383E+00 -2.308350E-01
        48   1  6.751556E+00  2.787999E+00  7.422939E+00 -1.003957E+00 -5.527163E-01 -8.812108E-01
        48   2  1.789701E+00  8.557821E-02 -3.050145E+00 -3.411771E-01 -6.040684E-01  5.254941E-01
        48   3 -3.951518E-02  8.090507E-01 -2.352861E+00 -7.441143E-01  1.938011E-01  6.306429E-01
        48   4  2.518289E+00  2.147024E+00  4.000441E+00 -9.787665E-01  2.292213E+00 -8.104480E-01

 internal state variables (elem, integ.pnt.,values) for set EALL and time  0.2100000E+02

        37   1  7.444034E-04  9.748449E-04  1.525153E-03 -3.590041E-04  4.599293E-04  1.392144E-04  1.246395E-04  3.433767E-04  7.604417E-04 -4.062801E-05 -5.756624E-05  2.111125E-05  6.568236E+02  9.065631E+00
        37   2 -1.424129E-04  9.869735E-04  7.091313E-04 -2.305595E-04  2.518997E-03  2.887327E-05 -1.928212E-04  3.903989E-04  4.795985E-04  8.141097E-05  5.857353E-04 -4.222348E-06  6.568236E+02  9.065631E+00
        37   3  2.144557E-03  7.078305E-04  2.355634E-04 -1.074696E-05 -3.759903E-04 -6.332618E-04  1.125151E-03  7.605374E-04  5.484517E-04  1.383544E-04 -4.458235E-04 -5.046639E-04  6.792291E+02  1.366842E+01
        37   4 -5.115396E-04  7.216787E-04  8.190382E-04 -1.856085E-03  3.217659E-03  2.448573E-06 -3.487513E-04  3.559781E-04  5.046701E-04 -2.360781E-04  9.137456E-04 -4.597319E-05  6.568236E+02  9.065631E+00
        38   1  5.789326E-05 -1.125955E-04 -3.998644E-04  5.902691E-04 -3.161859E-04 -1.473662E-04  3.269400E-05 -7.553385E-05 -1.216355E-04  1.129315E-04 -1.072826E-04 -1.595238E-04  6.137920E+02  4.120196E+00
        38   2  2.657862E-04 -1.307539E-06 -3.604547E-04  1.214208E-03 -2.614933E-03  3.549361E-04  4.325801E-05 -5.155112E-05 -3.533724E-04  3.601075E-04 -7.927374E-04  2.909952E-04  6.361080E+02  6.201920E+00
        38   3  3.820345E-04 -3.246646E-04 -3.255544E-04  5.046347E-04 -1.968811E-04 -1.479247E-04  1.043915E-04 -1.205982E-04 -7.493041E-05  7.864424E-05 -2.261103E-04 -1.131034E-04  6.137920E+02  4.120196E+00
        38   4  8.072454E-04 -2.185211E-04  1.400306E-04  9.401185E-04 -3.205392E-04 -1.417218E-04  1.431582E-04 -1.588009E-04 -2.032889E-04  1.626963E-04 -2.948081E-04  1.713901E-04  6.361080E+02  6.201920E+00
        39   1 -1.734348E-03  1.676807E-03  6.194883E-04 -1.409879E-04  2.895631E-05 -4.718907E-04 -8.099797E-04  8.684999E-04  3.274853E-04  2.136844E-04 -7.366631E-04 -2.649768E-04  6.637473E+02  1.029205E+01
        39   2 -2.514044E-03  1.408293E-03  8.399573E-04 -2.364152E-03  4.153069E-04 -1.081864E-03 -1.346702E-03  8.334890E-04  4.359188E-04 -3.739329E-04 -6.858047E-04 -5.694242E-04  6.637473E+02  1.029205E+01
        39   3 -1.150317E-03 -2.820755E-04  1.059024E-03  5.218043E-04  4.637768E-03 -1.279142E-03 -8.684698E-04  1.995947E-04  9.852837E-04  8.839275E-04  3.025749E-03 -9.629539E-04  6.861527E+02  1.551751E+01
        39   4  2.011040E-03 -8.279100E-04  2.134888E-05  6.230701E-05  3.859218E-03 -1.073569E-03  1.191546E-03 -1.597009E-04  4.203561E-04  2.927830E-04  2.725923E-03 -8.351410E-04  6.861527E+02  1.551751E+01
        40   1  1.617294E-03 -2.082266E-03 -3.381410E-03 -2.564338E-03  4.092466E-03 -1.063430E-04  8.540487E-04 -1.308248E-03 -2.720117E-03 -1.921297E-03  3.370568E-03 -1.551964E-04  6.930764E+02  1.761676E+01
        40   2  7.006822E-04 -2.349997E-03 -2.376029E-03 -3.477894E-03  4.370208E-03  1.758155E-04  3.997923E-04 -1.355566E-03 -2.123199E-03 -2.598515E-03  3.445735E-03 -4.770324E-05  6.930764E+02  1.761676E+01
        40   3  1.027755E-03 -1.746094E-03 -3.666310E-03 -3.169156E-03  5.155130E-03  1.619470E-04  7.517015E-04 -1.293856E-03 -2.829833E-03 -1.891772E-03  4.092318E-03 -1.076287E-04  6.930764E+02  1.761676E+01
        40   4 -7.318394E-04  1.179027E-03  1.813198E-03 -1.983304E-03  1.997171E-03 -1.117346E-03 -1.979071E-04  7.897032E-04  1.296052E-03 -2.101952E-04  4.224966E-04 -6.937424E-04  6.706709E+02  1.168439E+01
        41   1 -1.688303E-03  6.698482E-04  1.062774E-03 -7.382931E-04  3.578835E-03 -2.020667E-04 -6.933696E-04  2.529227E-04  6.308557E-04  6.700612E-04  1.285278E-03 -1.572985E-04  6.568236E+02  9.065631E+00
        41   2 -1.035735E-03  5.748753E-04  1.810851E-03 -1.968269E-04  3.154680E-04 -4.021145E-04 -2.451388E-04  1.968487E-04  8.711175E-04  8.530705E-04 -7.715534E-05 -1.869605E-04  6.568236E+02  9.065631E+00
        41   3 -1.239104E-04 -1.076657E-04  1.594408E-03 -4.358319E-03 -2.498607E-04 -1.031578E-03  2.205102E-05  8.557994E-05  1.456061E-03 -2.078573E-03 -6.250116E-04 -6.553970E-04  6.792291E+02  1.366842E+01
        41   4  1.254712E-03  7.224358E-04  1.729417E-03  9.386867E-04  4.672948E-04 -3.078189E-04  4.218094E-04  2.173642E-04  8.699792E-04  8.178197E-04  1.118093E-04 -1.312720E-04  6.568236E+02  9.065631E+00
        42   1 -1.352573E-04 -7.027938E-05 -6.517626E-05  5.329353E-04 -4.889539E-04  1.879769E-04 -2.825918E-05  5.298185E-05 -2.363681E-06 -2.713893E-05 -2.996829E-05  6.247030E-05  6.068960E+02  3.631064E+00
        42   2  3.583490E-05 -1.550221E-04 -3.912755E-06  4.450881E-07 -2.958586E-04  1.150075E-04  3.728998E-06  1.032464E-04  4.133713E-05 -1.786507E-04  9.339262E-05  4.065807E-05  6.068960E+02  3.631064E+00
        42   3  3.054826E-04 -1.269854E-04 -3.538615E-04 -3.206180E-04 -4.912695E-04  5.376444E-05  1.640334E-05  1.118789E-04 -4.511728E-05 -2.525132E-04 -2.249650E-05 -3.015346E-06  6.068960E+02  3.631064E+00
        42   4 -9.898217E-04  5.930058E-06  1.147052E-04  1.975176E-03 -2.204630E-03 -1.443507E-04 -1.798760E-04 -2.167879E-04 -8.584493E-05  6.331972E-04 -8.160376E-04  1.162338E-04  6.292120E+02  5.465655E+00
        43   1  1.900624E-04  1.348856E-04 -5.298480E-04  1.273016E-04 -3.144427E-04  1.733851E-04  8.818558E-05  1.157288E-04 -6.141645E-05 -1.976518E-04  9.152964E-05  6.501789E-05  6.068960E+02  3.631064E+00
        43   2 -9.545853E-04 -9.761770E-05  1.906789E-04  1.575478E-03 -2.649468E-03 -9.980804E-05 -1.563472E-04 -1.748252E-04 -1.441770E-04  3.844227E-04 -1.059093E-03  1.309792E-04  6.292120E+02  5.465655E+00
        43   3 -9.880226E-05  2.084562E-05 -2.437881E-04  1.472829E-04 -9.089401E-04  1.702249E-04 -8.302424E-06  4.128014E-05 -3.142367E-05 -1.539165E-04 -1.527001E-04  4.886164E-05  6.068960E+02  3.631064E+00
        43   4  3.419228E-04 -6.694469E-05 -4.778738E-04  1.637592E-04 -4.122622E-05  5.949676E-05  3.635184E-05  7.254580E-05 -3.928659E-05 -1.117906E-04  1.222719E-04 -9.388415E-06  6.068960E+02  3.631064E+00
        44   1 -2.414507E-04 -7.054003E-05  4.085891E-04  2.197513E-03 -8.546264E-04 -1.623320E-04  2.153707E-04 -1.939753E-04 -7.498867E-05  8.271466E-04 -4.042041E-04 -2.933415E-05  6.430040E+02  7.037366E+00
        44   2  6.207002E-05 -8.487499E-05 -3.920547E-04  5.850149E-04 -7.268245E-04 -4.939643E-05  7.860292E-05 -1.567973E-05 -2.775693E-04 -1.520030E-04 -3.136619E-04  7.100939E-05  6.206880E+02  4.675218E+00
        44   3  9.911171E-04  7.151219E-05  3.302832E-04  9.610033E-04 -6.863784E-04 -6.604009E-05  2.584882E-04 -1.736908E-04 -7.790230E-05  6.050905E-04 -2.349071E-04  2.121721E-05  6.430040E+02  7.037366E+00
        44   4 -3.576707E-04  2.626586E-05 -3.271755E-04  2.288596E-03 -2.088224E-03  3.012447E-05  1.772118E-04 -1.431687E-04 -2.969939E-04  8.774931E-04 -7.021748E-04 -4.289490E-07  6.430040E+02  7.037366E+00
        45   1 -1.031861E-03 -8.736011E-05  2.228116E-04  4.836052E-04 -2.234485E-03  1.219804E-04 -3.210978E-04 -3.078176E-04  4.047585E-05  1.848920E-04 -1.106602E-03  9.890766E-05  6.361080E+02  6.201920E+00
        45   2  5.411419E-04 -2.057730E-04 -4.713104E-04  4.007533E-04 -9.228130E-04  4.190679E-05  9.244854E-05 -2.129879E-05 -1.869052E-04  1.588033E-04 -1.610322E-04  7.795665E-05  6.137920E+02  4.120196E+00
        45   3 -1.994467E-04 -1.619466E-04 -1.057023E-04  3.601593E-04 -8.638340E-04 -3.284882E-05 -2.495386E-05 -2.086570E-05 -9.659665E-05  1.403061E-04 -1.248086E-04  3.825678E-05  6.137920E+02  4.120196E+00
        45   4 -1.139746E-03 -3.348458E-04  2.958428E-04  1.396810E-03 -2.372360E-03  5.551591E-05 -3.427413E-04 -3.418223E-04  8.725208E-05  2.344832E-04 -1.135769E-03  1.029408E-04  6.361080E+02  6.201920E+00
        46   1  3.143400E-04 -3.280679E-04 -3.674702E-04  3.868431E-04 -8.046039E-04  1.236195E-04 -3.032693E-05 -2.213601E-04 -1.725014E-04  1.548114E-04 -3.567508E-04  9.350187E-05  6.206880E+02  4.675218E+00
        46   2  3.572489E-04  7.751258E-05 -3.365186E-04  4.668395E-04 -2.650804E-03  2.195222E-04  1.365854E-04 -1.984799E-04 -2.389543E-04  1.790359E-04 -1.014943E-03  1.150200E-04  6.430040E+02  7.037366E+00
        46   3  9.795119E-04  6.002037E-05  4.687476E-04  3.295897E-04 -1.436894E-03  3.268489E-04  3.485028E-04 -2.401642E-04  1.996956E-05  6.929928E-05 -6.295196E-04  1.389059E-04  6.430040E+02  7.037366E+00
        46   4  4.248975E-04 -1.772644E-04 -2.291478E-04  1.374646E-03 -3.005240E-03  1.890458E-04  2.469365E-04 -2.325958E-04 -2.150159E-04  2.662473E-04 -1.151823E-03  7.770136E-05  6.430040E+02  7.037366E+00
        47   1 -3.303478E-03  1.326608E-03  2.005303E-03  1.429871E-05 -2.405536E-04 -2.438257E-04 -1.432743E-03  7.395912E-04  1.281717E-03  9.407194E-04 -8.453313E-04  7.881037E-05  6.706709E+02  1.168439E+01
        47   2  5.269558E-04 -4.433257E-04 -3.231554E-03 -4.392628E-03  5.236661E-03 -4.844854E-04  4.857838E-04 -2.672361E-04 -2.553963E-03 -2.827997E-03  4.084346E-03 -5.828180E-04  6.930764E+02  1.761676E+01
        47   3 -1.398367E-03 -2.809822E-04 -6.441087E-04 -3.108395E-03  4.434960E-03 -2.407388E-06 -1.025213E-03 -1.203945E-04 -5.532144E-04 -1.948610E-03  3.577876E-03  1.374704E-05  6.930764E+02  1.761676E+01
        47   4  3.072719E-05 -2.117725E-03 -8.037436E-04 -3.458783E-03  5.414409E-03 -5.277923E-04 -2.240111E-04 -1.271800E-03 -7.068793E-04 -2.230545E-03  4.213918E-03 -7.112190E-04  6.930764E+02  1.761676E+01
        48   1  1.796788E-03  2.544213E-04  2.320036E-03 -1.497114E-03 -9.187277E-04 -1.408453E-03  7.204152E-04  1.948711E-04  1.380940E-03 -3.757413E-04 -4.725972E-04 -5.931617E-04  6.637473E+02  1.029205E+01
        48   2  9.228408E-04  2.191583E-04 -1.408309E-03 -6.391526E-04 -1.227339E-03  1.054370E-03  3.824663E-04  5.925702E-04 -6.820183E-04 -2.561491E-04 -9.557267E-04  7.947474E-04  6.861527E+02  1.551751E+01
        48   3  1.101924E-04  5.595305E-04 -1.026455E-03 -1.338758E-03  3.346020E-04  1.239723E-03  2.021558E-04  6.039170E-04 -4.176504E-04 -2.274817E-04  1.102477E-05  8.360520E-04  6.861527E+02  1.551751E+01
        48   4  5.464888E-04  4.064214E-04  1.329574E-03 -1.300318E-03  3.545306E-03 -1.416268E-03  2.260981E-04  1.715289E-04  9.098332E-04  9.243457E-05  1.209131E-03 -9.039768E-04  6.637473E+02  1.029205E+01

 volume (element, volume) for set EALL and time  0.2100000E+02

        37  2.087500E+07
        38  2.079167E+07
        39  2.087500E+07
        40  2.087500E+07
        41  2.087500E+07
        42  2.079167E+07
        43  2.079167E+07
        44  2.079167E+07
        45  2.079167E+07
        46  2.079167E+07
        47  2.087500E+07
        48  2.087500E+07

 displacements (vx,vy,vz) for set NALL and time  0.2200000E+02

         1 -7.616964E+00 -1.863156E+00  9.288462E-01
         2 -4.577940E+00 -1.631339E+00  0.000000E+00
         3 -3.663282E+00  0.000000E+00  6.903129E-01
         4  0.000000E+00  0.000000E+00  0.000000E+00
         5  1.803666E+01 -1.275362E+01  3.784240E+00
         6  1.746906E+01 -1.345494E+01  0.000000E+00
         7  1.992909E+01  0.000000E+00  4.548216E+00
         8  1.791458E+01  0.000000E+00  0.000000E+00
         9  1.961584E+00 -1.158698E+01  0.000000E+00
        10  5.511679E+00  0.000000E+00  0.000000E+00
        11 -3.417520E-01 -1.159822E+01  9.615445E+00
        12  3.453263E+00  0.000000E+00  9.405929E+00
        13  1.777836E+01 -6.802787E+00  0.000000E+00
        14  9.331551E+00 -1.429602E+01  0.000000E+00
        15 -2.681549E+00 -6.493382E+00  0.000000E+00
        16 -1.093490E+00 -8.765318E-01  0.000000E+00
        17  1.151212E+01  0.000000E+00  0.000000E+00
        18  1.608177E+00  0.000000E+00  0.000000E+00
        19  1.833244E+01 -6.917982E+00  3.910926E+00
        20  1.026942E+01 -1.359962E+01  8.841420E+00
        21 -5.352879E+00 -6.432944E+00  4.924508E+00
        22 -4.660071E+00 -9.638982E-01  7.965391E-01
        23  1.182318E+01  0.000000E+00  9.322269E+00
        24 -1.559695E+00  0.000000E+00  4.910693E+00
        25 -5.274315E+00 -1.761281E+00  5.533017E-01
        26  1.582758E+01 -1.287608E+01  2.689484E+00
        27 -7.169586E-01  0.000000E+00  4.492007E-01
        28  1.789226E+01  0.000000E+00  2.562930E+00
        29  1.098231E+01 -6.922729E+00  0.000000E+00
        30  4.756591E+00 -5.758496E+00  0.000000E+00
        31  6.999133E-01 -3.310766E+00  0.000000E+00
        32  1.138664E+01 -6.678835E+00  8.917195E+00
        33 -2.499701E+00 -3.265267E+00  4.926055E+00
        34  2.568303E+00 -5.736716E+00  9.513769E+00
        35  9.268854E+00 -1.386171E+01  4.356177E+00
        36 -3.177021E+00 -6.485119E+00  2.571548E+00
        37  1.526003E+00 -1.152641E+01  4.620573E+00
        38  1.163803E+01  0.000000E+00  4.869511E+00
        39  9.584407E-01  0.000000E+00  2.476291E+00
        40  5.183762E+00  0.000000E+00  4.497351E+00
        41 -1.948269E+00 -9.476477E-01  5.243764E-01
        42  1.675151E+01 -6.930749E+00  2.711357E+00
        43  4.219362E+00 -5.749788E+00  4.658864E+00
        44  1.086647E+01 -6.998841E+00  4.580912E+00
        45  4.079412E-02 -3.291344E+00  2.532177E+00

 stresses (elem, integ.pnt.,sxx,syy,szz,sxy,sxz,syz) for set EALL and time  0.2200000E+02

        37   1  4.585735E+00  5.095117E+00  6.230261E+00 -3.142093E-01  4.505005E-01  1.201096E-01
        37   2  7.691418E-01  3.929045E+00  2.681227E+00 -2.476937E-01  2.071315E+00  2.893489E-02
        37   3  6.598414E+00  2.834922E+00  1.625322E+00 -3.510057E-02 -1.767216E-01 -3.499620E-01
        37   4 -6.573236E-01  2.661875E+00  2.693343E+00 -1.605793E+00  2.573238E+00  2.311913E-02
        38   1 -2.970613E-01 -7.259762E-01 -2.636970E+00  9.726468E-01 -4.133889E-01  6.717257E-02
        38   2  1.403398E+00  3.831913E-01 -2.991199E-01  1.232919E+00 -2.634530E+00  1.781972E-01
        38   3  1.919793E+00 -1.892349E+00 -2.281620E+00  8.692642E-01  1.124979E-01 -4.317478E-02
        38   4  4.612420E+00  4.658655E-01  2.434375E+00  1.067692E+00 -1.293568E-01 -3.537614E-01
        39   1 -4.421379E+00  4.739846E+00  1.877646E+00 -1.893182E-01  2.745148E-01 -3.053580E-01
        39   2 -6.772912E+00  3.421924E+00  1.976059E+00 -1.855166E+00  5.743765E-01 -7.150231E-01
        39   3 -2.762624E+00 -1.139524E+00  1.882249E+00  2.147003E-01  2.611233E+00 -6.920344E-01
        39   4  5.057595E+00 -1.607864E+00  2.672235E-01 -2.553970E-03  2.146104E+00 -5.806547E-01
        40   1  1.867236E+00 -6.249000E+00 -8.607410E+00 -1.362566E+00  2.152391E+00 -4.723379E-02
        40   2 -2.927920E-01 -6.988070E+00 -6.554681E+00 -1.846302E+00  2.316194E+00  1.150404E-01
        40   3  2.158641E-01 -5.696222E+00 -9.499093E+00 -1.738093E+00  2.720749E+00  1.127700E-01
        40   4 -9.319295E-01  3.848345E+00  5.141997E+00 -1.471356E+00  1.431895E+00 -6.809162E-01
        41   1 -5.013407E+00  1.994446E+00  2.718844E+00 -9.656398E-01  2.745063E+00 -1.167520E-01
        41   2 -2.611665E+00  2.538213E+00  5.772624E+00 -5.566529E-01  3.279480E-01 -2.877778E-01
        41   3  2.032698E-01  1.831756E-01  3.803319E+00 -2.668033E+00 -5.518829E-02 -5.909332E-01
        41   4  6.221172E+00  4.643796E+00  7.032365E+00  5.087696E-01  3.851827E-01 -2.256017E-01
        42   1 -1.620972E+00 -1.976740E+00 -1.213595E+00  1.402972E+00 -1.121720E+00  2.730384E-01
        42   2 -3.467386E-01 -3.448987E+00 -1.159739E+00  5.501872E-01 -1.020932E+00  1.617387E-01
        42   3  2.229558E+00 -3.217266E+00 -3.437479E+00 -1.814054E-02 -1.150731E+00  1.431270E-01
        42   4 -5.538422E+00  5.436528E-01  5.152073E-01  2.134739E+00 -2.247801E+00 -3.638406E-01
        43   1 -1.338301E-02 -8.947339E-01 -5.149048E+00  9.265865E-01 -1.058361E+00  2.303001E-01
        43   2 -5.445481E+00 -2.758087E-01  1.239938E+00  1.859443E+00 -2.598123E+00 -3.157925E-01
        43   3 -1.558337E+00 -9.874956E-01 -2.637212E+00  8.396721E-01 -1.782711E+00  2.703975E-01
        43   4  2.322834E+00 -2.163374E+00 -4.724943E+00  7.482983E-01 -4.819835E-01  1.764296E-01
        44   1 -1.610020E+00  3.823373E-01  2.176667E+00  1.914034E+00 -6.807565E-01 -1.661507E-01
        44   2 -4.266274E-01 -8.131968E-01 -1.120009E+00  1.320597E+00 -7.380870E-01 -2.136521E-01
        44   3  5.135506E+00  2.207984E+00  3.031690E+00  6.552124E-01 -6.139880E-01 -9.393234E-02
        44   4 -2.630362E+00  6.299134E-02 -1.062212E+00  1.979319E+00 -1.884161E+00  3.232558E-02
        45   1 -4.619140E+00  2.308524E-01  4.750028E-01  4.504148E-01 -1.836827E+00  6.205577E-02
        45   2  3.650239E+00 -1.547175E+00 -2.154016E+00  4.666618E-01 -1.558436E+00 -9.517230E-02
        45   3 -1.985542E+00 -1.726075E+00 -5.238184E-01  4.245961E-01 -1.518776E+00 -1.585662E-01
        45   4 -5.402221E+00 -1.226026E+00  3.685603E-01  1.590807E+00 -1.987948E+00 -2.935274E-02
        46   1  2.510557E+00 -7.204118E-01 -1.321237E+00  4.141425E-01 -8.018952E-01  5.377322E-02
        46   2  1.508839E+00  1.236617E+00 -5.279634E-01  4.037496E-01 -2.296865E+00  1.670418E-01
        46   3  4.844565E+00  2.397403E+00  3.401340E+00  3.262959E-01 -1.185777E+00  2.728925E-01
        46   4  1.356619E+00  3.034274E-02 -2.541425E-01  1.381931E+00 -2.604624E+00  1.602387E-01
        47   1 -8.734877E+00  3.171776E+00  4.578707E+00 -2.355548E-01  3.869394E-02 -2.010967E-01
        47   2 -3.378735E-01 -2.403965E+00 -8.035476E+00 -2.390201E+00  2.775093E+00 -2.330827E-01
        47   3 -4.051448E+00 -1.698608E+00 -2.343638E+00 -1.698541E+00  2.344881E+00 -3.518301E-03
        47   4 -1.142092E+00 -5.941693E+00 -2.901735E+00 -1.878020E+00  2.877013E+00 -2.450396E-01
        48   1  7.508584E+00  3.070395E+00  8.182768E+00 -1.133187E+00 -6.113089E-01 -9.816948E-01
        48   2  1.985031E+00  9.750557E-03 -3.436782E+00 -3.822602E-01 -6.594812E-01  5.780225E-01
        48   3 -7.708531E-02  8.332548E-01 -2.670820E+00 -8.417426E-01  2.229679E-01  6.988004E-01
        48   4  2.795934E+00  2.369447E+00  4.379423E+00 -1.124061E+00  2.569945E+00 -8.897640E-01

 internal state variables (elem, integ.pnt.,values) for set EALL and time  0.2200000E+02

        37   1  9.014082E-04  1.150997E-03  1.758029E-03 -4.403438E-04  5.852593E-04  1.699949E-04  2.334456E-04  4.749315E-04  9.504042E-04 -9.518844E-05  2.017350E-05  4.198606E-05  6.568236E+02  9.518913E+00
        37   2 -1.418636E-04  1.156717E-03  7.931022E-04 -3.031562E-04  3.030674E-03  3.703510E-05 -2.022836E-04  5.203979E-04  5.589006E-04  3.881412E-05  9.466451E-04  7.670649E-07  6.568236E+02  9.518913E+00
        37   3  2.460138E-03  7.638492E-04  2.174641E-04 -2.992407E-05 -4.007881E-04 -7.068660E-04  1.467198E-03  8.547335E-04  5.655282E-04  1.298057E-04 -4.939331E-04 -5.980596E-04  6.792291E+02  1.435184E+01
        37   4 -5.713559E-04  8.321318E-04  9.255601E-04 -2.268630E-03  3.839155E-03  1.228180E-05 -4.056757E-04  4.459619E-04  5.998029E-04 -5.151953E-04  1.362842E-03 -4.215694E-05  6.568236E+02  9.518913E+00
        38   1  6.372865E-05 -1.168815E-04 -4.906908E-04  7.572426E-04 -3.819423E-04 -1.211623E-04  3.653795E-05 -8.051883E-05 -1.660035E-04  1.900289E-04 -1.402275E-04 -1.548282E-04  6.137920E+02  4.326206E+00
        38   2  3.319146E-04  1.407448E-05 -3.589685E-04  1.467170E-03 -3.153065E-03  3.708391E-04  7.943727E-05 -4.606699E-05 -3.695741E-04  5.076750E-04 -1.108143E-03  3.132091E-04  6.361080E+02  6.512016E+00
        38   3  4.742781E-04 -3.866349E-04 -4.122585E-04  6.557433E-04 -1.566463E-04 -1.458381E-04  1.487093E-04 -1.524694E-04 -1.155522E-04  1.475047E-04 -2.179936E-04 -1.169307E-04  6.137920E+02  4.326206E+00
        38   4  1.003969E-03 -2.351318E-04  2.447645E-04  1.171980E-03 -3.248120E-04 -2.380061E-04  2.515562E-04 -1.749355E-04 -1.590327E-04  2.899306E-04 -3.112324E-04  1.301013E-04  6.361080E+02  6.512016E+00
        39   1 -2.006164E-03  1.925929E-03  7.107063E-04 -2.089904E-04  1.586227E-04 -5.378033E-04 -1.045769E-03  1.091327E-03  4.095001E-04  1.772658E-04 -6.857049E-04 -3.261086E-04  6.637473E+02  1.080666E+01
        39   2 -2.879217E-03  1.600143E-03  9.620075E-04 -2.854324E-03  6.238247E-04 -1.240245E-03 -1.677655E-03  1.014103E-03  5.465087E-04 -7.403089E-04 -5.754439E-04 -7.123072E-04  6.637473E+02  1.080666E+01
        39   3 -1.292788E-03 -3.623679E-04  1.170501E-03  5.382888E-04  5.263709E-03 -1.433200E-03 -1.058441E-03  1.350794E-04  1.152394E-03  9.510683E-04  3.812035E-03 -1.172473E-03  6.861527E+02  1.629339E+01
        39   4  2.292619E-03 -9.796479E-04 -1.964734E-05  4.512337E-05  4.361558E-03 -1.202519E-03  1.536513E-03 -3.158776E-04  4.066286E-04  2.932283E-04  3.372890E-03 -1.010849E-03  6.861527E+02  1.629339E+01
        40   1  1.850289E-03 -2.363163E-03 -3.794754E-03 -2.884056E-03  4.585257E-03 -1.127078E-04  1.161312E-03 -1.696155E-03 -3.332783E-03 -2.388442E-03  4.109054E-03 -1.717892E-04  6.930764E+02  1.849760E+01
        40   2  7.978517E-04 -2.677274E-03 -2.648578E-03 -3.910434E-03  4.909731E-03  2.138478E-04  5.313905E-04 -1.797487E-03 -2.546487E-03 -3.231647E-03  4.239698E-03 -9.178587E-06  6.930764E+02  1.849760E+01
        40   3  1.160718E-03 -1.965564E-03 -4.124580E-03 -3.604863E-03  5.783521E-03  2.021099E-04  9.408722E-04 -1.612655E-03 -3.498190E-03 -2.485458E-03  5.025643E-03 -7.007417E-05  6.930764E+02  1.849760E+01
        40   4 -8.611788E-04  1.325701E-03  2.030482E-03 -2.392519E-03  2.381770E-03 -1.267061E-03 -3.112082E-04  9.487296E-04  1.537460E-03 -5.396093E-04  7.437453E-04 -8.485312E-04  6.706709E+02  1.226861E+01
        41   1 -1.970730E-03  7.869741E-04  1.205391E-03 -1.047436E-03  4.218200E-03 -2.212744E-04 -9.127992E-04  3.418654E-04  7.559303E-04  5.051970E-04  1.765522E-03 -1.781436E-04  6.568236E+02  9.518913E+00
        41   2 -1.244376E-03  6.794957E-04  2.093620E-03 -4.115268E-04  4.097446E-04 -4.649524E-04 -3.928861E-04  2.747031E-04  1.098992E-03  7.600152E-04 -2.074782E-05 -2.375793E-04  6.568236E+02  9.518913E+00
        41   3 -1.514862E-04 -1.416936E-04  1.755008E-03 -5.025601E-03 -2.278161E-04 -1.165077E-03 -1.340734E-06  6.134445E-05  1.681608E-03 -2.783779E-03 -6.420188E-04 -8.128196E-04  6.792291E+02  1.435184E+01
        41   4  1.482064E-03  8.599675E-04  1.991894E-03  1.013135E-03  5.625689E-04 -3.582659E-04  5.913651E-04  3.174508E-04  1.084794E-03  9.091682E-04  1.788924E-04 -1.708910E-04  6.568236E+02  9.518913E+00
        42   1 -1.742097E-04 -1.311232E-04 -9.071454E-05  7.693084E-04 -6.734374E-04  2.281467E-04 -4.560281E-05  2.972411E-05 -1.309570E-05  7.028128E-05 -1.079873E-04  8.167430E-05  6.068960E+02  3.812618E+00
        42   2  4.824104E-05 -2.810378E-04 -3.010519E-05  1.076104E-04 -4.741366E-04  1.384940E-04  9.055918E-06  5.481919E-05  3.204111E-05 -1.410395E-04  2.280034E-05  5.202495E-05  6.068960E+02  3.812618E+00
        42   3  4.220548E-04 -2.465881E-04 -4.731454E-04 -3.019187E-04 -6.812624E-04  7.789324E-05  6.560770E-05  6.646388E-05 -9.658829E-05 -2.546689E-04 -1.025114E-04  6.911920E-06  6.068960E+02  3.812618E+00
        42   4 -1.241949E-03  8.575271E-05  1.822785E-04  2.379783E-03 -2.617604E-03 -2.329848E-04 -3.105721E-04 -1.879911E-04 -5.697872E-05  8.587608E-04 -1.053984E-03  7.862057E-05  6.292120E+02  5.738938E+00
        43   1  2.157471E-04  1.213404E-04 -7.121783E-04  2.988967E-04 -4.988381E-04  2.062247E-04  1.023642E-04  1.146434E-04 -1.397918E-04 -1.339867E-04  1.828582E-05  8.125337E-05  6.068960E+02  3.812618E+00
        43   2 -1.203881E-03 -6.587502E-05  3.034760E-04  1.942684E-03 -3.116540E-03 -1.793861E-04 -2.845885E-04 -1.674649E-04 -9.602438E-05  5.802509E-04 -1.334595E-03  9.842827E-05  6.292120E+02  5.738938E+00
        43   3 -1.346108E-04  4.654632E-06 -3.258123E-04  3.006048E-04 -1.193129E-03  2.111279E-04 -2.355195E-05  3.616623E-05 -6.682962E-05 -9.611926E-05 -2.771185E-04  6.784027E-05  6.068960E+02  3.812618E+00
        43   4  4.616378E-04 -1.380908E-04 -6.520724E-04  2.982083E-04 -1.321232E-04  8.973760E-05  8.764955E-05  4.576414E-05 -1.133959E-04 -6.016701E-05  8.925981E-05  2.839104E-06  6.068960E+02  3.812618E+00
        44   1 -3.660258E-04 -3.901243E-05  5.438707E-04  2.595735E-03 -9.868970E-04 -2.005106E-04  1.573530E-04 -1.862284E-04 -4.271586E-06  1.087727E-03 -4.973278E-04 -5.176919E-05  6.430040E+02  7.389234E+00
        44   2  4.945755E-05 -1.083114E-04 -4.091833E-04  8.586432E-04 -8.444241E-04 -9.772164E-05  7.630120E-05 -2.696497E-05 -2.973693E-04 -3.445290E-05 -3.808231E-04  5.213648E-05  6.206880E+02  4.908979E+00
        44   3  1.200287E-03  1.376796E-04  4.441000E-04  1.070497E-03 -8.164726E-04 -9.089236E-05  3.867642E-04 -1.458642E-04 -1.911579E-05  6.955373E-04 -3.183746E-04  8.701241E-06  6.430040E+02  7.389234E+00
        44   4 -5.040989E-04  7.121165E-05 -3.399113E-04  2.698517E-03 -2.489958E-03  3.786070E-05  1.051246E-04 -1.254424E-04 -3.188633E-04  1.147126E-03 -9.582735E-04  3.971206E-06  6.430040E+02  7.389234E+00
        45   1 -1.241445E-03 -1.822786E-05  2.768143E-04  5.713968E-04 -2.562166E-03  1.276899E-04 -4.445617E-04 -2.869537E-04  7.028861E-05  2.389946E-04 -1.328480E-03  1.066299E-04  6.361080E+02  6.512016E+00
        45   2  7.002179E-04 -2.738722E-04 -5.552623E-04  4.716560E-04 -1.192004E-03  1.776372E-05  1.652451E-04 -5.166390E-05 -2.310527E-04  1.961719E-04 -2.844381E-04  7.073457E-05  6.137920E+02  4.326206E+00
        45   3 -2.625004E-04 -2.136309E-04 -9.651655E-05  4.250328E-04 -1.128974E-03 -6.504904E-05 -5.334436E-05 -4.408961E-05 -9.661775E-05  1.742961E-04 -2.449667E-04  2.588700E-05  6.137920E+02  4.326206E+00
        45   4 -1.375016E-03 -3.291454E-04  3.571969E-04  1.742899E-03 -2.732300E-03  3.980363E-05 -4.804739E-04 -3.553158E-04  1.231060E-04  4.240996E-04 -1.375678E-03  9.985478E-05  6.361080E+02  6.512016E+00
        46   1  4.382891E-04 -3.470101E-04 -4.222944E-04  4.547117E-04 -9.310172E-04  1.259267E-04  2.464836E-05 -2.395636E-04 -2.048137E-04  1.924294E-04 -4.297614E-04  9.864750E-05  6.206880E+02  4.908979E+00
        46   2  4.204333E-04  1.522909E-04 -3.673044E-04  5.504662E-04 -3.126889E-03  2.506571E-04  1.783826E-04 -1.672062E-04 -2.678791E-04  2.340403E-04 -1.327719E-03  1.379072E-04  6.430040E+02  7.389234E+00
        46   3  1.161044E-03  1.412612E-04  5.953887E-04  4.033784E-04 -1.673835E-03  3.818201E-04  4.661184E-04 -2.074624E-04  9.071465E-05  1.134949E-04 -7.913812E-04  1.761151E-04  6.430040E+02  7.389234E+00
        46   4  4.782265E-04 -1.648571E-04 -2.361006E-04  1.689857E-03 -3.545130E-03  2.216775E-04  2.887147E-04 -2.374245E-04 -2.296177E-04  4.532881E-04 -1.506473E-03  9.952707E-05  6.430040E+02  7.389234E+00
        47   1 -3.828639E-03  1.513102E-03  2.266937E-03 -1.169524E-04 -1.719725E-04 -3.055699E-04 -1.921824E-03  9.266996E-04  1.556828E-03  8.919637E-04 -8.402461E-04  3.395553E-05  6.706709E+02  1.226861E+01
        47   2  5.887028E-04 -5.042364E-04 -3.630076E-03 -4.982128E-03  5.883276E-03 -5.266176E-04  5.801851E-04 -3.502696E-04 -3.140886E-03 -3.645068E-03  5.035772E-03 -6.637088E-04  6.930764E+02  1.849760E+01
        47   3 -1.577262E-03 -3.234251E-04 -7.205579E-04 -3.530837E-03  4.978029E-03 -4.357793E-06 -1.281787E-03 -1.745688E-04 -6.689961E-04 -2.528933E-03  4.381809E-03  1.264309E-05  6.930764E+02  1.849760E+01
        47   4  5.453946E-05 -2.408693E-03 -8.975746E-04 -3.920170E-03  6.088309E-03 -5.670640E-04 -2.103569E-04 -1.668445E-03 -8.507250E-04 -2.872787E-03  5.199791E-03 -7.966685E-04  6.930764E+02  1.849760E+01
        48   1  2.096743E-03  2.822270E-04  2.637417E-03 -1.786724E-03 -1.055285E-03 -1.639687E-03  9.715905E-04  2.249252E-04  1.678984E-03 -5.999367E-04 -5.947084E-04 -7.885884E-04  6.637473E+02  1.080666E+01
        48   2  1.067140E-03  2.009501E-04 -1.627069E-03 -7.407484E-04 -1.372166E-03  1.186003E-03  5.467315E-04  6.108336E-04 -9.321235E-04 -3.705722E-04 -1.155577E-03  9.692862E-04  6.861527E+02  1.629339E+01
        48   3  1.137357E-04  6.075669E-04 -1.195468E-03 -1.579787E-03  4.030081E-04  1.407273E-03  2.163589E-04  6.879149E-04 -6.037242E-04 -4.783103E-04  7.694345E-05  1.046325E-03  6.861527E+02  1.629339E+01
        48   4  6.381228E-04  4.709060E-04  1.491704E-03 -1.620702E-03  4.175632E-03 -1.600483E-03  3.026440E-04  2.270792E-04  1.073213E-03 -1.281609E-04  1.719192E-03 -1.082336E-03  6.637473E+02  1.080666E+01

 volume (element, volume) for set EALL and time  0.2200000E+02

        37  2.087500E+07
        38  2.079167E+07
        39  2.087500E+07
        40  2.087500E+07
        41  2.087500E+07
        42  2.079167E+07
        43  2.079167E+07
        44  2.079167E+07
        45  2.079167E+07
        46  2.079167E+07
        47  2.087500E+07
        48  2.087500E+07

 displacements (vx,vy,vz) for set NALL and time  0.2300000E+02

         1 -7.231991E+00 -2.350942E+00  1.472095E+00
         2 -4.544921E+00 -2.062285E+00  0.000000E+00
         3 -3.496376E+00  0.000000E+00  1.177798E+00
         4  0.000000E+00  0.000000E+00  0.000000E+00
         5  1.972074E+01 -1.135848E+01  1.398091E+00
         6  1.818278E+01 -1.213421E+01  0.000000E+00
         7  2.095822E+01  0.000000E+00  2.239866E+00
         8  1.768203E+01  0.000000E+00  0.000000E+00
         9  2.590698E+00 -1.207275E+01  0.000000E+00
        10  5.806047E+00  0.000000E+00  0.000000E+00
        11  7.706617E-01 -1.210241E+01  1.002208E+01
        12  4.275981E+00  0.000000E+00  9.786140E+00
        13  1.779108E+01 -6.163813E+00  0.000000E+00
        14  1.023556E+01 -1.416250E+01  0.000000E+00
        15 -2.392965E+00 -6.996483E+00  0.000000E+00
        16 -1.066975E+00 -1.106049E+00  0.000000E+00
        17  1.178918E+01  0.000000E+00  0.000000E+00
        18  1.757268E+00  0.000000E+00  0.000000E+00
        19  1.932923E+01 -6.316043E+00  1.537049E+00
        20  1.217537E+01 -1.336186E+01  8.149598E+00
        21 -4.685986E+00 -6.897861E+00  5.365871E+00
        22 -4.419071E+00 -1.223459E+00  1.309433E+00
        23  1.305949E+01  0.000000E+00  8.703777E+00
        24 -1.127019E+00  0.000000E+00  5.376752E+00
        25 -5.113524E+00 -2.220759E+00  8.492425E-01
        26  1.649838E+01 -1.149242E+01  1.622298E+00
        27 -6.293991E-01  0.000000E+00  7.156743E-01
        28  1.790147E+01  0.000000E+00  1.461664E+00
        29  1.141138E+01 -6.828906E+00  0.000000E+00
        30  5.148258E+00 -5.992601E+00  0.000000E+00
        31  9.174758E-01 -3.568230E+00  0.000000E+00
        32  1.275917E+01 -6.544719E+00  8.239355E+00
        33 -2.001690E+00 -3.508630E+00  5.387516E+00
        34  3.469118E+00 -5.973074E+00  9.908463E+00
        35  1.035269E+01 -1.366605E+01  4.004625E+00
        36 -2.764482E+00 -6.977171E+00  2.812334E+00
        37  2.290343E+00 -1.200439E+01  4.785868E+00
        38  1.215922E+01  0.000000E+00  4.594959E+00
        39  1.203974E+00  0.000000E+00  2.715341E+00
        40  5.635892E+00  0.000000E+00  4.646938E+00
        41 -1.840808E+00 -1.204099E+00  8.163284E-01
        42  1.683342E+01 -6.324445E+00  1.642274E+00
        43  4.743419E+00 -5.983272E+00  4.835081E+00
        44  1.149323E+01 -6.916313E+00  4.264983E+00
        45  3.547012E-01 -3.542653E+00  2.770721E+00

 stresses (elem, integ.pnt.,sxx,syy,szz,sxy,sxz,syz) for set EALL and time  0.2300000E+02

        37   1  5.097087E+00  5.646197E+00  6.864288E+00 -3.534553E-01  5.126948E-01  1.348629E-01
        37   2  8.701682E-01  4.341708E+00  2.923559E+00 -2.833689E-01  2.315926E+00  3.294301E-02
        37   3  7.239578E+00  3.025875E+00  1.689355E+00 -4.452847E-02 -1.840580E-01 -3.799076E-01
        37   4 -7.020879E-01  2.924948E+00  2.940331E+00 -1.802731E+00  2.868600E+00  2.826807E-02
        38   1 -3.308253E-01 -7.800737E-01 -2.920889E+00  1.084790E+00 -4.568439E-01  9.075663E-02
        38   2  1.590526E+00  4.627444E-01 -2.332112E-01  1.367187E+00 -2.920755E+00  1.828819E-01
        38   3  2.131219E+00 -2.083197E+00 -2.543654E+00  9.703840E-01  1.452257E-01 -3.796045E-02
        38   4  5.172334E+00  5.748894E-01  2.807154E+00  1.193367E+00 -1.279221E-01 -4.101113E-01
        39   1 -4.877913E+00  5.198599E+00  2.057855E+00 -2.220568E-01  3.414972E-01 -3.337182E-01
        39   2 -7.434132E+00  3.730789E+00  2.155634E+00 -2.079362E+00  6.750746E-01 -7.843030E-01
        39   3 -3.033663E+00 -1.331655E+00  2.006345E+00  2.189490E-01  2.867357E+00 -7.512584E-01
        39   4  5.540765E+00 -1.843888E+00  2.102703E-01 -1.108285E-02  2.352058E+00 -6.313362E-01
        40   1  2.082490E+00 -6.843859E+00 -9.391847E+00 -1.486775E+00  2.346490E+00 -4.909370E-02
        40   2 -3.108153E-01 -7.671850E+00 -7.133292E+00 -2.013508E+00  2.529358E+00  1.310777E-01
        40   3  2.462224E-01 -6.220122E+00 -1.038126E+01 -1.909596E+00  2.966312E+00  1.296788E-01
        40   4 -1.063985E+00  4.163967E+00  5.565006E+00 -1.653284E+00  1.603479E+00 -7.440411E-01
        41   1 -5.534847E+00  2.201743E+00  2.962079E+00 -1.117999E+00  3.046947E+00 -1.246953E-01
        41   2 -2.929625E+00  2.802519E+00  6.348758E+00 -6.678851E-01  3.754408E-01 -3.159704E-01
        41   3  1.862354E-01  1.471360E-01  4.067083E+00 -2.948274E+00 -4.214545E-02 -6.425553E-01
        41   4  6.886547E+00  5.148370E+00  7.742783E+00  5.370917E-01  4.310907E-01 -2.484384E-01
        42   1 -1.815415E+00 -2.248190E+00 -1.368305E+00  1.581249E+00 -1.261138E+00  3.007893E-01
        42   2 -4.072937E-01 -3.935677E+00 -1.334281E+00  6.368541E-01 -1.159667E+00  1.785421E-01
        42   3  2.496794E+00 -3.672957E+00 -3.860589E+00  4.804667E-03 -1.294337E+00  1.617018E-01
        42   4 -6.159228E+00  6.960059E-01  6.302038E-01  2.359980E+00 -2.477472E+00 -4.181252E-01
        43   1 -6.268923E-02 -1.066514E+00 -5.787264E+00  1.063675E+00 -1.200026E+00  2.526593E-01
        43   2 -6.060442E+00 -2.363199E-01  1.460727E+00  2.067957E+00 -2.854467E+00 -3.646166E-01
        43   3 -1.750556E+00 -1.128749E+00 -2.958738E+00  9.608017E-01 -1.991872E+00  2.989539E-01
        43   4  2.595454E+00 -2.469790E+00 -5.312940E+00  8.529186E-01 -5.565094E-01  1.995152E-01
        44   1 -1.856698E+00  4.771287E-01  2.481461E+00  2.113828E+00 -7.451302E-01 -1.863502E-01
        44   2 -4.906109E-01 -8.993887E-01 -1.165599E+00  1.500171E+00 -8.062051E-01 -2.458969E-01
        44   3  5.735466E+00  2.529290E+00  3.441393E+00  7.049137E-01 -6.800548E-01 -1.079164E-01
        44   4 -2.986871E+00  1.140735E-01 -1.120466E+00  2.183001E+00 -2.086635E+00  3.547254E-02
        45   1 -5.101227E+00  3.672565E-01  5.560091E-01  4.963151E-01 -2.003726E+00  6.396473E-02
        45   2  4.088048E+00 -1.729308E+00 -2.356212E+00  5.110678E-01 -1.741791E+00 -1.142417E-01
        45   3 -2.218547E+00 -1.928992E+00 -5.478484E-01  4.652006E-01 -1.700181E+00 -1.818506E-01
        45   4 -5.977543E+00 -1.266510E+00  4.248519E-01  1.776948E+00 -2.172303E+00 -3.973512E-02
        46   1  2.863430E+00 -7.162998E-01 -1.413259E+00  4.537632E-01 -8.749715E-01  5.321007E-02
        46   2  1.681925E+00  1.454585E+00 -5.297670E-01  4.451965E-01 -2.535513E+00  1.824346E-01
        46   3  5.378049E+00  2.755180E+00  3.832508E+00  3.635011E-01 -1.303282E+00  3.006993E-01
        46   4  1.484725E+00  9.736739E-02 -2.291886E-01  1.541438E+00 -2.875909E+00  1.769112E-01
        47   1 -9.660809E+00  3.446829E+00  4.969075E+00 -3.008586E-01  7.634141E-02 -2.267655E-01
        47   2 -3.698186E-01 -2.633167E+00 -8.776234E+00 -2.622640E+00  3.029059E+00 -2.485569E-01
        47   3 -4.434682E+00 -1.866330E+00 -2.559519E+00 -1.865652E+00  2.560253E+00 -4.476630E-03
        47   4 -1.223285E+00 -6.520035E+00 -3.163643E+00 -2.058801E+00  3.143901E+00 -2.588470E-01
        48   1  8.281885E+00  3.357355E+00  8.957860E+00 -1.266513E+00 -6.709402E-01 -1.084348E+00
        48   2  2.181798E+00 -7.485311E-02 -3.839026E+00 -4.242996E-01 -7.146129E-01  6.314765E-01
        48   3 -1.167009E-01  8.517901E-01 -3.003275E+00 -9.415196E-01  2.535607E-01  7.688157E-01
        48   4  3.080303E+00  2.593698E+00  4.764558E+00 -1.274578E+00  2.855360E+00 -9.708783E-01

 internal state variables (elem, integ.pnt.,values) for set EALL and time  0.2300000E+02

        37   1  1.065283E-03  1.335339E-03  2.001147E-03 -5.260296E-04  7.180145E-04  2.023820E-04  3.554584E-04  6.214825E-04  1.159975E-03 -1.568831E-04  1.091762E-04  6.554644E-05  6.568236E+02  9.972194E+00
        37   2 -1.412013E-04  1.334081E-03  8.802198E-04 -3.799225E-04  3.568637E-03  4.566660E-05 -2.116668E-04  6.647469E-04  6.450702E-04 -1.025798E-05  1.352042E-03  6.484807E-06  6.568236E+02  9.972194E+00
        37   3  2.785988E-03  8.187864E-04  1.955619E-04 -5.060103E-05 -4.245970E-04 -7.824173E-04  1.845529E-03  9.542424E-04  5.792753E-04  1.187118E-04 -5.441964E-04 -6.997440E-04  6.792291E+02  1.503526E+01
        37   4 -6.333886E-04  9.472773E-04  1.036361E-03 -2.702300E-03  4.491808E-03  2.282808E-05 -4.674829E-04  5.451845E-04  7.037542E-04 -8.301552E-04  1.865687E-03 -3.740857E-05  6.568236E+02  9.972194E+00
        38   1  6.997291E-05 -1.210740E-04 -5.878616E-04  9.360004E-04 -4.521588E-04 -9.175891E-05  4.070611E-05 -8.560302E-05 -2.154109E-04  2.764332E-04 -1.767739E-04 -1.481957E-04  6.137920E+02  4.532216E+00
        38   2  4.019835E-04  3.058371E-05 -3.556969E-04  1.734144E-03 -3.721105E-03  3.863902E-04  1.201076E-04 -3.946229E-05 -3.850633E-04  6.720395E-04 -1.459318E-03  3.360345E-04  6.361080E+02  6.822112E+00
        38   3  5.728465E-04 -4.525497E-04 -5.053373E-04  8.174454E-04 -1.122561E-04 -1.427433E-04  1.981033E-04 -1.876434E-04 -1.610969E-04  2.247627E-04 -2.071702E-04 -1.203380E-04  6.137920E+02  4.532216E+00
        38   4  1.212090E-03 -2.520954E-04  3.572308E-04  1.417522E-03 -3.280892E-04 -3.413037E-04  3.731970E-04 -1.919687E-04 -1.071259E-04  4.328624E-04 -3.274962E-04  8.181338E-05  6.361080E+02  6.822112E+00
        39   1 -2.288862E-03  2.184258E-03  8.054916E-04 -2.809745E-04  2.980612E-04 -6.059270E-04 -1.306593E-03  1.336811E-03  4.998844E-04  1.341108E-04 -6.210826E-04 -3.931504E-04  6.637473E+02  1.132126E+01
        39   2 -3.258169E-03  1.798614E-03  1.087824E-03 -3.367385E-03  8.447007E-04 -1.404475E-03 -2.041925E-03  1.211989E-03  6.679187E-04 -1.153058E-03 -4.443712E-04 -8.695929E-04  6.637473E+02  1.132126E+01
        39   3 -1.438739E-03 -4.480025E-04  1.283614E-03  5.535908E-04  5.908668E-03 -1.589440E-03 -1.266340E-03  5.912366E-05  1.333103E-03  1.019657E-03  4.678561E-03 -1.400752E-03  6.861527E+02  1.706926E+01
        39   4  2.582651E-03 -1.138195E-03 -6.459757E-05  2.640734E-05  4.879395E-03 -1.334013E-03  1.917535E-03 -4.923755E-04  3.865750E-04  2.910714E-04  4.084346E-03 -1.202545E-03  6.861527E+02  1.706926E+01
        40   1  2.089169E-03 -2.650076E-03 -4.217625E-03 -3.209533E-03  5.088833E-03 -1.187367E-04  1.501680E-03 -2.123537E-03 -4.003808E-03 -2.900078E-03  4.916887E-03 -1.890860E-04  6.930764E+02  1.937844E+01
        40   2  8.968919E-04 -3.011905E-03 -2.926657E-03 -4.350158E-03  5.461549E-03  2.534988E-04  6.765595E-04 -2.285541E-03 -3.007953E-03 -3.924726E-03  5.109780E-03  3.501513E-05  6.930764E+02  1.937844E+01
        40   3  1.297369E-03 -2.189235E-03 -4.593728E-03 -4.050081E-03  6.424258E-03  2.439666E-04  1.149067E-03 -1.962095E-03 -4.231379E-03 -3.140448E-03  6.046829E-03 -2.653933E-05  6.930764E+02  1.937844E+01
        40   4 -9.940850E-04  1.475531E-03  2.253229E-03 -2.819894E-03  2.783710E-03 -1.421553E-03 -4.371830E-04  1.121790E-03  1.799957E-03 -9.117413E-04  1.105246E-03 -1.018238E-03  6.706709E+02  1.285283E+01
        41   1 -2.264966E-03  9.093129E-04  1.353841E-03 -1.374597E-03  4.888713E-03 -2.409179E-04 -1.155782E-03  4.406931E-04  8.928506E-04  3.126613E-04  2.300725E-03 -2.004542E-04  6.568236E+02  9.972194E+00
        41   2 -1.462767E-03  7.889297E-04  2.389059E-03 -6.411072E-04  5.099187E-04 -5.302273E-04 -5.584143E-04  3.614454E-04  1.350763E-03  6.468634E-04  4.424786E-05 -2.933678E-04  6.568236E+02  9.972194E+00
        41   3 -1.799263E-04 -1.780403E-04  1.917192E-03 -5.715958E-03 -2.027057E-04 -1.300541E-03 -2.789022E-05  3.272601E-05  1.924207E-03 -3.566235E-03 -6.555792E-04 -9.846675E-04  6.792291E+02  1.503526E+01
        41   4  1.719418E-03  1.004009E-03  2.265895E-03  1.088229E-03  6.628991E-04 -4.107602E-04  7.800653E-04  4.292888E-04  1.321702E-03  1.005810E-03  2.543190E-04 -2.146940E-04  6.568236E+02  9.972194E+00
        42   1 -2.160469E-04 -1.971676E-04 -1.183133E-04  1.024496E-03 -8.726176E-04  2.710003E-04 -6.501751E-05  2.987611E-06 -2.524493E-05  1.807288E-04 -1.961781E-04  1.029119E-04  6.068960E+02  3.994171E+00
        42   2  6.149127E-05 -4.177519E-04 -5.867364E-05  2.244904E-04 -6.674240E-04  1.636581E-04  1.501626E-05 -7.874075E-07  2.119939E-05 -9.710650E-05 -5.790470E-05  6.461891E-05  6.068960E+02  3.994171E+00
        42   3  5.477983E-04 -3.764651E-04 -6.016478E-04 -2.799310E-04 -8.863987E-04  1.040133E-04  1.211990E-04  1.419260E-05 -1.545365E-04 -2.551625E-04 -1.930046E-04  1.819379E-05  6.068960E+02  3.994171E+00
        42   4 -1.509621E-03  1.716747E-04  2.547240E-04  2.807537E-03 -3.054058E-03 -3.281129E-04 -4.571464E-04 -1.537460E-04 -2.360440E-05  1.109162E-03 -1.317229E-03  3.505726E-05  6.292120E+02  6.012220E+00
        43   1  2.428535E-04  1.058711E-04 -9.086577E-04  4.856844E-04 -6.984172E-04  2.411915E-04  1.177398E-04  1.125148E-04 -2.280881E-04 -6.032611E-05 -6.529820E-05  9.912794E-05  6.068960E+02  3.994171E+00
        43   2 -1.468614E-03 -3.124869E-05  4.243211E-04  2.332089E-03 -3.609187E-03 -2.648296E-04 -4.285534E-04 -1.577741E-04 -4.037698E-05  7.990464E-04 -1.638359E-03  6.052268E-05  6.292120E+02  6.012220E+00
        43   3 -1.731669E-04 -1.312928E-05 -4.142101E-04  4.672400E-04 -1.498850E-03  2.548280E-04 -4.073894E-05  3.005326E-05 -1.067016E-04 -2.948284E-05 -4.168177E-04  8.891224E-05  6.068960E+02  3.994171E+00
        43   4  5.906615E-04 -2.153744E-04 -8.399739E-04  4.440100E-04 -2.314337E-04  1.224417E-04  1.454678E-04  1.489495E-05 -1.970487E-04 -9.051853E-07  5.082468E-05  1.675301E-05  6.068960E+02  3.994171E+00
        44   1 -4.986410E-04 -4.900120E-06  6.879542E-04  3.014189E-03 -1.125180E-03 -2.409947E-04  8.984803E-05 -1.758806E-04  7.677379E-05  1.376645E-03 -5.996067E-04 -7.705409E-05  6.430040E+02  7.741103E+00
        44   2  3.555352E-05 -1.334515E-04 -4.260957E-04  1.152823E-03 -9.685434E-04 -1.498087E-04  7.309981E-05 -3.967498E-05 -3.176920E-04  9.996594E-05 -4.544137E-04  3.023746E-05  6.206880E+02  5.142740E+00
        44   3  1.420675E-03  2.084761E-04  5.653387E-04  1.183692E-03 -9.534416E-04 -1.175411E-04  5.301405E-04 -1.128681E-04  4.836630E-05  7.930992E-04 -4.111963E-04 -5.777380E-06  6.430040E+02  7.741103E+00
        44   4 -6.594598E-04  1.192587E-04 -3.520918E-04  3.128602E-03 -2.912482E-03  4.574927E-05  2.207430E-05 -1.042202E-04 -3.412019E-04  1.445690E-03 -1.243099E-03  8.834369E-06  6.430040E+02  7.741103E+00
        45   1 -1.462916E-03  5.670140E-05  3.340489E-04  6.638156E-04 -2.905619E-03  1.333412E-04 -5.820421E-04 -2.607899E-04  1.037740E-04  2.988417E-04 -1.571259E-03  1.145962E-04  6.361080E+02  6.822112E+00
        45   2  8.708237E-04 -3.471200E-04 -6.445124E-04  5.468258E-04 -1.480721E-03 -8.726267E-06  2.470153E-04 -8.594558E-05 -2.796584E-04  2.372328E-04 -4.230347E-04  6.194000E-05  6.137920E+02  4.532216E+00
        45   3 -3.302166E-04 -2.692202E-04 -8.606598E-05  4.938099E-04 -1.413527E-03 -9.989493E-05 -8.532435E-05 -7.028510E-05 -9.590939E-05  2.116641E-04 -3.801503E-04  1.159082E-05  6.137920E+02  4.532216E+00
        45   4 -1.623627E-03 -3.214805E-04  4.219921E-04  2.108973E-03 -3.109901E-03  2.256081E-05 -6.339400E-04 -3.678365E-04  1.630493E-04  6.369907E-04 -1.638666E-03  9.548742E-05  6.361080E+02  6.822112E+00
        46   1  5.711936E-04 -3.661394E-04 -4.803006E-04  5.264276E-04 -1.064401E-03  1.278722E-04  8.713935E-05 -2.584966E-04 -2.401739E-04  2.337880E-04 -5.096696E-04  1.037456E-04  6.206880E+02  5.142740E+00
        46   2  4.864755E-04  2.324648E-04 -3.988415E-04  6.381752E-04 -3.627086E-03  2.832778E-04  2.245482E-04 -1.300306E-04 -2.986991E-04  2.949352E-04 -1.674345E-03  1.629752E-04  6.430040E+02  7.741103E+00
        46   3  1.351487E-03  2.285498E-04  7.298631E-04  4.810054E-04 -1.922312E-03  4.396467E-04  5.965385E-04 -1.682810E-04  1.709806E-04  1.629741E-04 -9.699215E-04  2.172588E-04  6.430040E+02  7.741103E+00
        46   4  5.335932E-04 -1.506068E-04 -2.424358E-04  2.021691E-03 -4.112584E-03  2.560660E-04  3.340437E-04 -2.409292E-04 -2.443612E-04  6.629814E-04 -1.899591E-03  1.237109E-04  6.430040E+02  7.741103E+00
        47   1 -4.372093E-03  1.704803E-03  2.536145E-03 -2.577753E-04 -9.652683E-05 -3.691521E-04 -2.463817E-03  1.132107E-03  1.857712E-03  8.280790E-04 -8.265458E-04 -1.700111E-05  6.706709E+02  1.285283E+01
        47   2  6.526069E-04 -5.665205E-04 -4.037748E-03 -5.584764E-03  6.543526E-03 -5.688409E-04  6.836006E-04 -4.418909E-04 -3.784063E-03 -4.545189E-03  6.077983E-03 -7.501935E-04  6.930764E+02  1.937844E+01
        47   3 -1.760363E-03 -3.668564E-04 -7.988716E-04 -3.963086E-03  5.534039E-03 -6.492698E-06 -1.563653E-03 -2.347399E-04 -7.956131E-04 -3.168931E-03  5.262590E-03  1.120750E-05  6.930764E+02  1.937844E+01
        47   4  7.935500E-05 -2.706129E-03 -9.935898E-04 -4.391005E-03  6.778020E-03 -6.059638E-04 -1.931575E-04 -2.106075E-03 -1.007828E-03 -3.579695E-03  6.280924E-03 -8.871479E-04  6.930764E+02  1.937844E+01
        48   1  2.408775E-03  3.106127E-04  2.966621E-03 -2.090242E-03 -1.196843E-03 -1.880213E-03  1.250418E-03  2.573399E-04  2.005927E-03 -8.516753E-04 -7.292217E-04 -1.005325E-03  6.637473E+02  1.132126E+01
        48   2  1.215972E-03  1.795732E-04 -1.855347E-03 -8.457429E-04 -1.518658E-03  1.321353E-03  7.295533E-04  6.257289E-04 -1.211407E-03 -4.981425E-04 -1.372912E-03  1.160588E-03  6.861527E+02  1.706926E+01
        48   3  1.176940E-04  6.549801E-04 -1.372713E-03 -1.828960E-03  4.752197E-04  1.580863E-03  2.311377E-04  7.772474E-04 -8.126882E-04 -7.603617E-04  1.523141E-04  1.278452E-03  6.861527E+02  1.706926E+01
        48   4  7.339382E-04  5.370613E-04  1.659207E-03 -1.957968E-03  4.833914E-03 -1.791708E-03  3.878223E-04  2.882263E-04  1.251106E-03 -3.797882E-04  2.288329E-03 -1.277525E-03  6.637473E+02  1.132126E+01

 volume (element, volume) for set EALL and time  0.2300000E+02

        37  2.087500E+07
        38  2.079167E+07
        39  2.087500E+07
        40  2.087500E+07
        41  2.087500E+07
        42  2.079167E+07
        43  2.079167E+07
        44  2.079167E+07
        45  2.079167E+07
        46  2.079167E+07
        47  2.087500E+07
        48  2.087500E+07

 displacements (vx,vy,vz) for set NALL and time  0.2400000E+02

         1 -6.776133E+00 -2.845102E+00  2.023913E+00
         2 -4.488174E+00 -2.495565E+00  0.000000E+00
         3 -3.295999E+00  0.000000E+00  1.669834E+00
         4  0.000000E+00  0.000000E+00  0.000000E+00
         5  2.141869E+01 -9.747853E+00 -1.271845E+00
         6  1.882175E+01 -1.060191E+01  0.000000E+00
         7  2.193345E+01  0.000000E+00 -3.484539E-01
         8  1.728731E+01  0.000000E+00  0.000000E+00
         9  3.238506E+00 -1.252073E+01  0.000000E+00
        10  6.073145E+00  0.000000E+00  0.000000E+00
        11  1.957322E+00 -1.257028E+01  1.038207E+01
        12  5.130243E+00  0.000000E+00  1.011828E+01
        13  1.766431E+01 -5.420829E+00  0.000000E+00
        14  1.113474E+01 -1.392216E+01  0.000000E+00
        15 -2.080788E+00 -7.486421E+00  0.000000E+00
        16 -1.033152E+00 -1.337721E+00  0.000000E+00
        17  1.199557E+01  0.000000E+00  0.000000E+00
        18  1.897973E+00  0.000000E+00  0.000000E+00
        19  2.027570E+01 -5.613196E+00 -1.119958E+00
        20  1.416479E+01 -1.301175E+01  7.312115E+00
        21 -3.947587E+00 -7.346519E+00  5.786919E+00
        22 -4.133435E+00 -1.487472E+00  1.828750E+00
        23  1.431259E+01  0.000000E+00  7.943500E+00
        24 -6.608737E-01  0.000000E+00  5.824764E+00
        25 -4.913937E+00 -2.684549E+00  1.151287E+00
        26  1.709747E+01 -9.893919E+00  4.218696E-01
        27 -5.301507E-01  0.000000E+00  9.860389E-01
        28  1.777042E+01  0.000000E+00  2.244020E-01
        29  1.178562E+01 -6.680212E+00  0.000000E+00
        30  5.524635E+00 -6.207165E+00  0.000000E+00
        31  1.136864E+00 -3.819350E+00  0.000000E+00
        32  1.416256E+01 -6.353597E+00  7.416606E+00
        33 -1.460161E+00 -3.744577E+00  5.830453E+00
        34  4.412388E+00 -6.190130E+00  1.025592E+01
        35  1.144831E+01 -1.336057E+01  3.579975E+00
        36 -2.314516E+00 -7.455134E+00  3.044251E+00
        37  3.087835E+00 -1.244408E+01  4.925177E+00
        38  1.263151E+01  0.000000E+00  4.252136E+00
        39  1.453255E+00  0.000000E+00  2.945820E+00
        40  6.076898E+00  0.000000E+00  4.769695E+00
        41 -1.714339E+00 -1.464805E+00  1.114169E+00
        42  1.678639E+01 -5.616767E+00  4.397190E-01
        43  5.267036E+00 -6.197088E+00  4.986182E+00
        44  1.208380E+01 -6.779986E+00  3.878262E+00
        45  6.825986E-01 -3.787160E+00  3.000384E+00

 stresses (elem, integ.pnt.,sxx,syy,szz,sxy,sxz,syz) for set EALL and time  0.2400000E+02

        37   1  5.617861E+00  6.209183E+00  7.511964E+00 -3.939280E-01  5.774022E-01  1.500348E-01
        37   2  9.726021E-01  4.762721E+00  3.170159E+00 -3.202833E-01  2.568008E+00  3.708030E-02
        37   3  7.887934E+00  3.210270E+00  1.744295E+00 -5.455911E-02 -1.904151E-01 -4.101293E-01
        37   4 -7.474130E-01  3.193163E+00  3.192115E+00 -2.005330E+00  3.172576E+00  3.362058E-02
        38   1 -3.648477E-01 -8.348311E-01 -3.211322E+00  1.199319E+00 -5.013497E-01  1.153662E-01
        38   2  1.782931E+00  5.452234E-01 -1.620753E-01  1.503822E+00 -3.212765E+00  1.872112E-01
        38   3  2.347275E+00 -2.277618E+00 -2.812209E+00  1.073506E+00  1.789002E-01 -3.230707E-02
        38   4  5.745533E+00  6.884086E-01  3.192968E+00  1.321700E+00 -1.261415E-01 -4.683618E-01
        39   1 -5.343883E+00  5.663671E+00  2.241173E+00 -2.560453E-01  4.123242E-01 -3.623237E-01
        39   2 -8.107402E+00  4.042442E+00  2.334515E+00 -2.309482E+00  7.796394E-01 -8.546019E-01
        39   3 -3.308929E+00 -1.535128E+00  2.126927E+00  2.224148E-01  3.127627E+00 -8.098605E-01
        39   4  6.028938E+00 -2.090979E+00  1.439572E-01 -2.024114E-02  2.561650E+00 -6.820145E-01
        40   1  2.300268E+00 -7.441317E+00 -1.018159E+01 -1.610915E+00  2.541608E+00 -5.071310E-02
        40   2 -3.296590E-01 -8.359245E+00 -7.714403E+00 -2.180265E+00  2.743878E+00  1.475722E-01
        40   3  2.787220E-01 -6.745318E+00 -1.126971E+01 -2.081779E+00  3.212337E+00  1.470410E-01
        40   4 -1.196027E+00  4.478306E+00  5.988438E+00 -1.840043E+00  1.780011E+00 -8.079304E-01
        41   1 -6.064645E+00  2.413583E+00  3.210511E+00 -1.275348E+00  3.357380E+00 -1.326154E-01
        41   2 -3.254356E+00  3.072743E+00  6.938101E+00 -7.841060E-01  4.250011E-01 -3.444734E-01
        41   3  1.670144E-01  1.056210E-01  4.324842E+00 -3.233764E+00 -2.763811E-02 -6.934743E-01
        41   4  7.565114E+00  5.664124E+00  8.468618E+00  5.645268E-01  4.784714E-01 -2.715688E-01
        42   1 -2.014472E+00 -2.526493E+00 -1.527246E+00  1.763663E+00 -1.404295E+00  3.290090E-01
        42   2 -4.704438E-01 -4.434711E+00 -1.514008E+00  7.258645E-01 -1.302413E+00  1.957566E-01
        42   3  2.770346E+00 -4.140294E+00 -4.294450E+00  2.869343E-02 -1.441770E+00  1.807871E-01
        42   4 -6.793168E+00  8.539028E-01  7.496579E-01  2.589162E+00 -2.711739E+00 -4.740960E-01
        43   1 -1.140884E-01 -1.243800E+00 -6.441842E+00  1.204610E+00 -1.345357E+00  2.753831E-01
        43   2 -6.688257E+00 -1.940997E-01  1.689197E+00  2.280627E+00 -3.115431E+00 -4.148938E-01
        43   3 -1.947267E+00 -1.273783E+00 -3.288538E+00  1.085095E+00 -2.206018E+00  3.279727E-01
        43   4  2.874550E+00 -2.784043E+00 -5.916195E+00  9.601784E-01 -6.334393E-01  2.231505E-01
        44   1 -2.109990E+00  5.758988E-01  2.797372E+00  2.317581E+00 -8.103717E-01 -2.071931E-01
        44   2 -5.561078E-01 -9.875012E-01 -1.209703E+00  1.684512E+00 -8.754332E-01 -2.790792E-01
        44   3  6.349913E+00  2.860462E+00  3.864305E+00  7.545636E-01 -7.476875E-01 -1.225121E-01
        44   4 -3.351735E+00  1.675078E-01 -1.177500E+00  2.390056E+00 -2.292908E+00  3.840221E-02
        45   1 -5.594465E+00  5.104691E-01  6.399819E-01  5.429857E-01 -2.173256E+00  6.581786E-02
        45   2  4.536642E+00 -1.915633E+00 -2.562407E+00  5.562554E-01 -1.929752E+00 -1.339855E-01
        45   3 -2.457879E+00 -2.136516E+00 -5.717843E-01  5.064604E-01 -1.886256E+00 -2.057955E-01
        45   4 -6.565875E+00 -1.304702E+00  4.831253E-01  1.966567E+00 -2.359684E+00 -5.061743E-02
        46   1  3.225665E+00 -7.096458E-01 -1.506046E+00  4.940163E-01 -9.492251E-01  5.251572E-02
        46   2  1.858205E+00  1.680570E+00 -5.295424E-01  4.872610E-01 -2.778832E+00  1.981758E-01
        46   3  5.922521E+00  3.124976E+00  4.276991E+00  4.013297E-01 -1.422909E+00  3.292136E-01
        46   4  1.615039E+00  1.686463E-01 -2.012987E-01  1.703565E+00 -3.152686E+00  1.940183E-01
        47   1 -1.060106E+01  3.721379E+00  5.360635E+00 -3.698809E-01  1.171979E-01 -2.523097E-01
        47   2 -3.996829E-01 -2.863447E+00 -9.521756E+00 -2.856263E+00  3.284044E+00 -2.637194E-01
        47   3 -4.820812E+00 -2.035210E+00 -2.777260E+00 -2.033857E+00  2.777422E+00 -5.502111E-03
        47   4 -1.303851E+00 -7.101184E+00 -3.427230E+00 -2.240046E+00  3.412789E+00 -2.721282E-01
        48   1  9.069185E+00  3.647867E+00  9.745900E+00 -1.403749E+00 -7.314032E-01 -1.188853E+00
        48   2  2.378749E+00 -1.691350E-01 -4.257133E+00 -4.672216E-01 -7.691162E-01  6.857027E-01
        48   3 -1.585145E-01  8.636247E-01 -3.350729E+00 -1.043145E+00  2.856169E-01  8.406009E-01
        48   4  3.370722E+00  2.818540E+00  5.154536E+00 -1.430156E+00  3.147918E+00 -1.053608E+00

 internal state variables (elem, integ.pnt.,values) for set EALL and time  0.2400000E+02

        37   1  1.235436E-03  1.527335E-03  2.253874E-03 -6.158921E-04  8.580849E-04  2.362964E-04  4.909249E-04  7.833869E-04  1.389614E-03 -2.259440E-04  2.099052E-04  9.187203E-05  6.568236E+02  1.042548E+01
        37   2 -1.404959E-04  1.518535E-03  9.702519E-04 -4.607217E-04  4.131874E-03  5.474747E-05 -2.209890E-04  8.237668E-04  7.382348E-04 -6.603762E-05  1.803335E-03  1.295522E-05  6.568236E+02  1.042548E+01
        37   3  3.121048E-03  8.720491E-04  1.694584E-04 -7.280962E-05 -4.470446E-04 -8.596440E-04  2.260784E-03  1.058723E-03  5.891492E-04  1.049071E-04 -5.963675E-04 -8.098108E-04  6.792291E+02  1.571868E+01
        37   4 -6.974751E-04  1.066778E-03  1.151149E-03 -3.156129E-03  5.174317E-03  3.406009E-05 -5.342629E-04  6.538393E-04  8.167064E-04 -1.182034E-03  2.423913E-03 -3.168984E-05  6.568236E+02  1.042548E+01
        38   1  7.663468E-05 -1.251629E-04 -6.911810E-04  1.126114E-03 -5.267077E-04 -5.918864E-05  4.521414E-05 -9.078003E-05 -2.699843E-04  3.723569E-04 -2.170143E-04 -1.395394E-04  6.137920E+02  4.738226E+00
        38   2  4.758082E-04  4.817884E-05 -3.505655E-04  2.014235E-03 -4.317375E-03  4.015189E-04  1.653854E-04 -3.169954E-05 -3.997300E-04  8.535291E-04 -1.847046E-03  3.594298E-04  6.361080E+02  7.132208E+00
        38   3  6.775246E-04 -5.222479E-04 -6.046069E-04  9.893242E-04 -6.384159E-05 -1.386251E-04  2.526927E-04 -2.261851E-04 -2.116963E-04  3.105981E-04 -1.935582E-04 -1.232890E-04  6.137920E+02  4.738226E+00
        38   4  1.430999E-03 -2.693370E-04  4.772613E-04  1.675979E-03 -3.303803E-04 -4.513919E-04  5.083910E-04 -2.098897E-04 -4.727007E-05  5.918513E-04 -3.435567E-04  2.628109E-05  6.361080E+02  7.132208E+00
        39   1 -2.581624E-03  2.450890E-03  9.035850E-04 -3.568253E-04  4.473777E-04 -6.759840E-04 -1.592983E-03  1.605322E-03  5.988158E-04  8.395585E-05 -5.420036E-04 -4.661681E-04  6.637473E+02  1.183586E+01
        39   2 -3.649720E-03  2.003002E-03  1.216802E-03 -3.902065E-03  1.077586E-03 -1.573993E-03 -2.440131E-03  1.427392E-03  8.002120E-04 -1.613466E-03 -2.917656E-04 -1.041521E-03  6.637473E+02  1.183586E+01
        39   3 -1.587593E-03 -5.391396E-04  1.397768E-03  5.674824E-04  6.570685E-03 -1.746904E-03 -1.492343E-03 -2.895665E-05  1.527365E-03  1.089466E-03  5.626764E-03 -1.647668E-03  6.861527E+02  1.784514E+01
        39   4  2.880211E-03 -1.303373E-03 -1.137884E-04  6.115327E-06  5.411301E-03 -1.467415E-03  2.335230E-03 -6.899149E-04  3.596224E-04  2.861171E-04  4.861528E-03 -1.410272E-03  6.861527E+02  1.784514E+01
        40   1  2.332933E-03 -2.941702E-03 -4.648302E-03 -3.539137E-03  5.601010E-03 -1.243429E-04  1.875525E-03 -2.590663E-03 -4.733758E-03 -3.456309E-03  5.794608E-03 -2.070076E-04  6.930764E+02  2.025927E+01
        40   2  9.973063E-04 -3.352376E-03 -3.209065E-03 -4.794765E-03  6.023319E-03  2.946666E-04  8.353458E-04 -2.820086E-03 -3.507843E-03 -4.677772E-03  6.056658E-03  8.505034E-05  6.930764E+02  2.025927E+01
        40   3  1.437236E-03 -2.416055E-03 -5.071855E-03 -4.502714E-03  7.074318E-03  2.873931E-04  1.376584E-03 -2.342306E-03 -5.030068E-03 -3.857151E-03  7.156286E-03  2.314931E-05  6.930764E+02  2.025927E+01
        40   4 -1.129828E-03  1.627719E-03  2.480420E-03 -3.264385E-03  3.202176E-03 -1.580276E-03 -5.758654E-04  1.308856E-03  2.083633E-03 -1.327782E-03  1.508206E-03 -1.203071E-03  6.706709E+02  1.343705E+01
        41   1 -2.570020E-03  1.036490E-03  1.507742E-03 -1.719032E-03  5.589046E-03 -2.609184E-04 -1.422752E-03  5.496205E-04  1.041870E-03  9.150737E-05  2.892508E-03 -2.242306E-04  6.568236E+02  1.042548E+01
        41   2 -1.690240E-03  9.028584E-04  2.696416E-03 -8.853287E-04  6.159353E-04 -5.976799E-04 -7.421368E-04  4.572840E-04  1.627010E-03  5.126942E-04  1.182116E-04 -3.543952E-04  6.568236E+02  1.042548E+01
        41   3 -2.090920E-04 -2.167457E-04  2.079928E-03 -6.427344E-03 -1.743295E-04 -1.437094E-03 -5.763200E-05 -5.282363E-07  2.183617E-03 -4.427508E-03 -6.653013E-04 -1.170801E-03  6.792291E+02  1.571868E+01
        41   4  1.966018E-03  1.154148E-03  2.550708E-03  1.163472E-03  7.681063E-04 -4.650984E-04  9.883081E-04  5.531673E-04  1.581222E-03  1.107603E-03  3.383659E-04 -2.627446E-04  6.568236E+02  1.042548E+01
        42   1 -2.606872E-04 -2.682747E-04 -1.479368E-04  1.297959E-03 -1.086172E-03  3.164375E-04 -8.655309E-05 -2.732062E-05 -3.885485E-05  3.045256E-04 -2.948271E-04  1.262211E-04  6.068960E+02  4.175724E+00
        42   2  7.552765E-05 -5.648728E-04 -8.957889E-05  3.508456E-04 -8.754271E-04  1.904608E-04  2.161265E-05 -6.376200E-05  8.761139E-06 -4.667161E-05 -1.490275E-04  7.847189E-05  6.068960E+02  4.175724E+00
        42   3  6.824706E-04 -5.163461E-04 -7.391450E-04 -2.547066E-04 -1.106341E-03  1.320821E-04  1.833414E-04 -4.511942E-05 -2.191340E-04 -2.539227E-04 -2.942693E-04  3.086947E-05  6.068960E+02  4.175724E+00
        42   4 -1.792112E-03  2.634746E-04  3.318831E-04  3.257127E-03 -3.512835E-03 -4.295295E-04 -6.199752E-04 -1.138822E-04  1.442065E-05  1.384878E-03 -1.606320E-03 -1.464839E-05  6.292120E+02  6.285503E+00
        43   1  2.713342E-04  8.850225E-05 -1.118941E-03  6.873268E-04 -9.128062E-04  2.782045E-04  1.343345E-04  1.092991E-04 -3.265691E-04  2.362424E-05 -1.595041E-04  1.186710E-04  6.068960E+02  4.175724E+00
        43   2 -1.748055E-03  6.172712E-06  5.529484E-04  2.742540E-03 -4.126041E-03 -3.559324E-04 -5.886132E-04 -1.456665E-04  2.299946E-05  1.041306E-03 -1.970942E-03  1.709616E-05  6.292120E+02  6.285503E+00
        43   3 -2.143865E-04 -3.246990E-05 -5.088344E-04  6.468524E-04 -1.825536E-03  3.012154E-04 -5.990863E-05  2.291065E-05 -1.511615E-04  4.623680E-05 -5.721837E-04  1.121151E-04  6.068960E+02  4.175724E+00
        43   4  7.287535E-04 -2.986307E-04 -1.041256E-03  6.008648E-04 -3.390258E-04  1.575403E-04  2.099753E-04 -2.017081E-05 -2.905045E-04  6.619843E-05  6.784090E-06  3.239608E-05  6.068960E+02  4.175724E+00
        44   1 -6.389247E-04  3.170818E-05  8.405952E-04  3.451615E-03 -1.268994E-03 -2.837089E-04  1.256739E-05 -1.628280E-04  1.685223E-04  1.694511E-03 -7.111830E-04 -1.052830E-04  6.430040E+02  8.092971E+00
        44   2  2.039851E-05 -1.602445E-04 -4.427057E-04  1.466859E-03 -1.098865E-03 -2.055448E-04  6.896793E-05 -5.385137E-05 -3.384996E-04  2.517265E-04 -5.345492E-04  5.220629E-06  6.206880E+02  5.376501E+00
        44   3  1.651655E-03  2.837298E-04  6.937898E-04  1.300084E-03 -1.096938E-03 -1.459663E-04  6.889799E-04 -7.452123E-05  1.248588E-04  8.977875E-04 -5.136083E-04 -2.230603E-05  6.430040E+02  8.092971E+00
        44   4 -8.232631E-04  1.702633E-04 -3.636252E-04  3.577392E-03 -3.354414E-03  5.369348E-05 -7.223156E-05 -7.939116E-05 -3.639470E-04  1.773715E-03 -1.557244E-03  1.413341E-05  6.430040E+02  8.092971E+00
        45   1 -1.695749E-03  1.372998E-04  3.943909E-04  7.605632E-04 -3.263829E-03  1.389242E-04 -7.339021E-04 -2.291033E-04  1.410371E-04  3.645407E-04 -1.835305E-03  1.228004E-04  6.361080E+02  7.132208E+00
        45   2  1.052605E-03 -4.253508E-04 -7.388790E-04  6.260891E-04 -1.788399E-03 -3.752097E-05  3.379897E-04 -1.242442E-04 -3.328220E-04  2.820562E-04 -5.772252E-04  5.151543E-05  6.137920E+02  4.738226E+00
        45   3 -4.024884E-04 -3.285767E-04 -7.437044E-05  5.663193E-04 -1.716949E-03 -1.373168E-04 -1.210000E-04 -9.952408E-05 -9.443956E-05  2.524701E-04 -5.307666E-04 -4.688799E-06  6.137920E+02  4.738226E+00
        45   4 -1.884956E-03 -3.118110E-04  4.900751E-04  2.493787E-03 -3.504052E-03  3.810031E-06 -8.035346E-04 -3.792785E-04  2.071864E-04  8.736353E-04 -1.925154E-03  8.977582E-05  6.361080E+02  7.132208E+00
        46   1  7.127279E-04 -3.853742E-04 -5.413408E-04  6.017965E-04 -1.204413E-03  1.294569E-04  1.573440E-04 -2.781366E-04 -2.786408E-04  2.789528E-04 -5.965985E-04  1.087838E-04  6.206880E+02  5.376501E+00
        46   2  5.551280E-04  3.178824E-04 -4.309997E-04  7.296490E-04 -4.149879E-03  3.173135E-04  2.751425E-04 -8.672414E-05 -3.314066E-04  3.618204E-04 -2.055544E-03  1.902764E-04  6.430040E+02  8.092971E+00
        46   3  1.550217E-03  3.217328E-04  8.719319E-04  5.621860E-04 -2.181563E-03  5.002044E-04  7.400065E-04 -1.223572E-04  2.610932E-04  2.178355E-04 -1.165471E-03  2.624425E-04  6.430040E+02  8.092971E+00
        46   4  5.908151E-04 -1.344883E-04 -2.480764E-04  2.368890E-03 -4.705929E-03  2.921351E-04  3.829644E-04 -2.430039E-04 -2.591859E-04  8.957456E-04 -2.332023E-03  1.503176E-04  6.430040E+02  8.092971E+00
        47   1 -4.931869E-03  1.900834E-03  2.811816E-03 -4.082523E-04 -1.386494E-05 -4.341436E-04 -3.059570E-03  1.355934E-03  2.184609E-03  7.481967E-04 -8.034961E-04 -7.405702E-05  6.706709E+02  1.343705E+01
        47   2  7.185614E-04 -6.299059E-04 -4.452889E-03 -6.197819E-03  7.214448E-03 -6.108957E-04  7.962716E-04 -5.421714E-04 -4.484023E-03 -5.528998E-03  7.211583E-03 -8.421794E-04  6.930764E+02  2.025927E+01
        47   3 -1.946913E-03 -4.110750E-04 -8.787526E-04 -4.403266E-03  6.100793E-03 -8.812690E-06 -1.871060E-03 -3.009568E-04 -9.331914E-04 -3.869139E-03  6.221039E-03  9.415685E-06  6.930764E+02  2.025927E+01
        47   4  1.051062E-04 -3.008687E-03 -1.091419E-03 -4.869043E-03  7.480712E-03 -6.442021E-04 -1.723076E-04 -2.585002E-03 -1.178326E-03 -4.351609E-03  7.458264E-03 -9.824915E-04  6.930764E+02  2.025927E+01
        48   1  2.731911E-03  3.394122E-04  3.306638E-03 -2.407051E-03 -1.342899E-03 -2.129248E-03  1.557462E-03  2.920974E-04  2.362302E-03 -1.131797E-03 -8.763335E-04 -1.243793E-03  6.637473E+02  1.183586E+01
        48   2  1.368811E-03  1.547506E-04 -2.092949E-03 -9.538729E-04 -1.665961E-03  1.460008E-03  9.312507E-04  6.367783E-04 -1.520899E-03 -6.391508E-04 -1.607588E-03  1.368921E-03  6.861527E+02  1.784514E+01
        48   3  1.221340E-04  7.013260E-04 -1.558198E-03 -2.085483E-03  5.512742E-04  1.760170E-03  2.465669E-04  8.716664E-04 -1.045503E-03 -1.074268E-03  2.375936E-04  1.533007E-03  6.861527E+02  1.784514E+01
        48   4  8.337303E-04  6.044721E-04  1.831531E-03 -2.311524E-03  5.518557E-03 -1.989460E-03  4.818783E-04  3.549430E-04  1.443717E-03 -6.635262E-04  2.918098E-03 -1.489903E-03  6.637473E+02  1.183586E+01

 volume (element, volume) for set EALL and time  0.2400000E+02

        37  2.087500E+07
        38  2.079167E+07
        39  2.087500E+07
        40  2.087500E+07
        41  2.087500E+07
        42  2.079167E+07
        43  2.079167E+07
        44  2.079167E+07
        45  2.079167E+07
        46  2.079167E+07
        47  2.087500E+07
        48  2.087500E+07

 displacements (vx,vy,vz) for set NALL and time  0.2500000E+02

         1 -6.249615E+00 -3.345531E+00  2.584203E+00
         2 -4.407732E+00 -2.931136E+00  0.000000E+00
         3 -3.062167E+00  0.000000E+00  2.166360E+00
         4  0.000000E+00  0.000000E+00  0.000000E+00
         5  2.312965E+01 -7.921853E+00 -4.226157E+00
         6  1.938536E+01 -8.858207E+00  0.000000E+00
         7  2.285432E+01  0.000000E+00 -3.217338E+00
         8  1.673037E+01  0.000000E+00  0.000000E+00
         9  3.904868E+00 -1.293078E+01  0.000000E+00
        10  6.313111E+00  0.000000E+00  0.000000E+00
        11  3.217706E+00 -1.300161E+01  1.069512E+01
        12  6.015893E+00  0.000000E+00  1.040207E+01
        13  1.739782E+01 -4.573958E+00  0.000000E+00
        14  1.202874E+01 -1.357482E+01  0.000000E+00
        15 -1.745069E+00 -7.963095E+00  0.000000E+00
        16 -9.920520E-01 -1.571511E+00  0.000000E+00
        17  1.213145E+01  0.000000E+00  0.000000E+00
        18  2.030348E+00  0.000000E+00  0.000000E+00
        19  2.117124E+01 -4.809612E+00 -4.060664E+00
        20  1.623669E+01 -1.254943E+01  6.328875E+00
        21 -3.137992E+00 -7.778837E+00  6.187534E+00
        22 -3.803239E+00 -1.755871E+00  2.354418E+00
        23  1.558217E+01  0.000000E+00  7.041094E+00
        24 -1.613040E-01  0.000000E+00  6.254610E+00
        25 -4.675659E+00 -3.152577E+00  1.459370E+00
        26  1.762402E+01 -8.080730E+00 -9.119425E-01
        27 -4.192455E-01  0.000000E+00  1.260246E+00
        28  1.749877E+01  0.000000E+00 -1.149048E+00
        29  1.210502E+01 -6.476588E+00  0.000000E+00
        30  5.885727E+00 -6.402109E+00  0.000000E+00
        31  1.358057E+00 -4.064065E+00  0.000000E+00
        32  1.559629E+01 -6.105546E+00  6.448794E+00
        33 -8.752349E-01 -3.973048E+00  6.254750E+00
        34  5.397856E+00 -6.387790E+00  1.055586E+01
        35  1.255511E+01 -1.294536E+01  3.082178E+00
        36 -1.827279E+00 -7.918914E+00  3.267216E+00
        37  3.918198E+00 -1.284532E+01  5.038356E+00
        38  1.305483E+01  0.000000E+00  3.840958E+00
        39  1.706290E+00  0.000000E+00  3.167658E+00
        40  6.506806E+00  0.000000E+00  4.865501E+00
        41 -1.568907E+00 -1.729707E+00  1.417840E+00
        42  1.660994E+01 -4.807882E+00 -8.964438E-01
        43  5.790149E+00 -6.391129E+00  5.112034E+00
        44  1.263799E+01 -6.589899E+00  3.420689E+00
        45  1.024418E+00 -4.024802E+00  3.221087E+00

 stresses (elem, integ.pnt.,sxx,syy,szz,sxy,sxz,syz) for set EALL and time  0.2500000E+02

        37   1  6.146226E+00  6.782569E+00  8.171606E+00 -4.355662E-01  6.446561E-01  1.656026E-01
        37   2  1.076058E+00  5.190911E+00  3.420286E+00 -3.584035E-01  2.827262E+00  4.134310E-02
        37   3  8.540827E+00  3.386007E+00  1.788287E+00 -6.520697E-02 -1.955604E-01 -4.404904E-01
        37   4 -7.931687E-01  3.465780E+00  3.448008E+00 -2.213258E+00  3.484730E+00  3.917260E-02
        38   1 -3.989946E-01 -8.900304E-01 -3.507457E+00  1.315925E+00 -5.467931E-01  1.409774E-01
        38   2  1.980254E+00  6.305578E-01 -8.540233E-02  1.642333E+00 -3.509641E+00  1.911281E-01
        38   3  2.567435E+00 -2.474984E+00 -3.086577E+00  1.178328E+00  2.134623E-01 -2.620231E-02
        38   4  6.330542E+00  8.063833E-01  3.591439E+00  1.452292E+00 -1.239886E-01 -5.284339E-01
        39   1 -5.817975E+00  6.133410E+00  2.427124E+00 -2.912804E-01  4.871634E-01 -3.910117E-01
        39   2 -8.790589E+00  4.355549E+00  2.511208E+00 -2.545100E+00  8.879718E-01 -9.256405E-01
        39   3 -3.587438E+00 -1.750666E+00  2.242621E+00  2.249438E-01  3.391195E+00 -8.673084E-01
        39   4  6.520035E+00 -2.349629E+00  6.687153E-02 -3.005574E-02  2.774310E+00 -7.323611E-01
        40   1  2.519373E+00 -8.038114E+00 -1.097241E+01 -1.734186E+00  2.736612E+00 -5.204742E-02
        40   2 -3.493319E-01 -9.046431E+00 -8.294722E+00 -2.345436E+00  2.958533E+00  1.644709E-01
        40   3  3.134436E-01 -7.268842E+00 -1.215962E+01 -2.253601E+00  3.457263E+00  1.647832E-01
        40   4 -1.326908E+00  4.789306E+00  6.409665E+00 -2.031289E+00  1.961254E+00 -8.723363E-01
        41   1 -6.601006E+00  2.629447E+00  3.463540E+00 -1.437400E+00  3.675901E+00 -1.404484E-01
        41   2 -3.585020E+00  3.348249E+00  7.539269E+00 -9.053567E-01  4.766679E-01 -3.731408E-01
        41   3  1.454047E-01  5.805263E-02  4.574033E+00 -3.523734E+00 -1.152401E-02 -7.432237E-01
        41   4  8.254757E+00  6.189743E+00  9.207997E+00  5.907955E-01  5.272807E-01 -2.948787E-01
        42   1 -2.217661E+00 -2.811003E+00 -1.690122E+00  1.949750E+00 -1.550903E+00  3.576015E-01
        42   2 -5.362045E-01 -4.944920E+00 -1.698625E+00  8.170260E-01 -1.448942E+00  2.133380E-01
        42   3  3.049558E+00 -4.618194E+00 -4.738124E+00  5.349235E-02 -1.592735E+00  2.003399E-01
        42   4 -7.438443E+00  1.017210E+00  8.735062E-01  2.821506E+00 -2.949907E+00 -5.316729E-01
        43   1 -1.675673E-01 -1.426298E+00 -7.111365E+00  1.349123E+00 -1.494047E+00  2.983990E-01
        43   2 -7.327117E+00 -1.490681E-01  1.925162E+00  2.496797E+00 -3.380161E+00 -4.665447E-01
        43   3 -2.147978E+00 -1.422289E+00 -3.625909E+00  1.212270E+00 -2.424641E+00  3.573527E-01
        43   4  3.159464E+00 -3.105401E+00 -6.533427E+00  1.069842E+00 -7.126447E-01  2.472743E-01
        44   1 -2.369371E+00  6.785676E-01  3.124178E+00  2.524706E+00 -8.762056E-01 -2.286540E-01
        44   2 -6.229580E-01 -1.077268E+00 -1.251794E+00  1.873203E+00 -9.455403E-01 -3.131464E-01
        44   3  6.977316E+00  3.200900E+00  4.299862E+00  8.038786E-01 -8.167093E-01 -1.377302E-01
        44   4 -3.723962E+00  2.232282E-01 -1.232832E+00  2.599769E+00 -2.502242E+00  4.105117E-02
        45   1 -6.097690E+00  6.605349E-01  7.268590E-01  5.902546E-01 -2.344835E+00  6.759885E-02
        45   2  4.994997E+00 -2.105597E+00 -2.771977E+00  6.021022E-01 -2.121895E+00 -1.543830E-01
        45   3 -2.703116E+00 -2.348032E+00 -5.954902E-01  5.482448E-01 -2.076617E+00 -2.303610E-01
        45   4 -7.165708E+00 -1.340132E+00  5.433596E-01  2.158992E+00 -2.549446E+00 -6.200977E-02
        46   1  3.596477E+00 -7.001096E-01 -1.599119E+00  5.347776E-01 -1.024397E+00  5.168702E-02
        46   2  2.037130E+00  1.914346E+00 -5.270662E-01  5.297729E-01 -3.026068E+00  2.142264E-01
        46   3  6.476417E+00  3.506322E+00  4.734140E+00  4.396443E-01 -1.544254E+00  3.583779E-01
        46   4  1.747207E+00  2.443430E-01 -1.702449E-01  1.867664E+00 -3.434107E+00  2.115211E-01
        47   1 -1.155198E+01  3.993641E+00  5.751072E+00 -4.428189E-01  1.615735E-01 -2.774504E-01
        47   2 -4.268897E-01 -3.093531E+00 -1.026794E+01 -3.089733E+00  3.538519E+00 -2.784556E-01
        47   3 -5.207815E+00 -2.204343E+00 -2.995740E+00 -2.202254E+00  2.995271E+00 -6.589835E-03
        47   4 -1.383111E+00 -7.681861E+00 -3.691074E+00 -2.420656E+00  3.682228E+00 -2.847365E-01
        48   1  9.868025E+00  3.940840E+00  1.054437E+01 -1.544721E+00 -7.924752E-01 -1.294862E+00
        48   2  2.574397E+00 -2.741931E-01 -4.691576E+00 -5.109645E-01 -8.226138E-01  7.405453E-01
        48   3 -2.027633E-01  8.675523E-01 -3.713921E+00 -1.146301E+00  3.191861E-01  9.140867E-01
        48   4  3.666492E+00  3.042564E+00  5.547915E+00 -1.590643E+00  3.447065E+00 -1.137764E+00

 internal state variables (elem, integ.pnt.,values) for set EALL and time  0.2500000E+02

        37   1  1.411249E-03  1.726443E-03  2.515561E-03 -7.097630E-04  1.005392E-03  2.716615E-04  6.400411E-04  9.609633E-04  1.639734E-03 -3.025923E-04  3.228278E-04  1.210381E-04  6.568236E+02  1.087876E+01
        37   2 -1.398151E-04  1.709543E-03  1.062954E-03 -5.454251E-04  4.719410E-03  6.425893E-05 -2.302725E-04  9.977389E-04  8.385016E-04 -1.287507E-04  2.301878E-03  2.020182E-05  6.568236E+02  1.087876E+01
        37   3  3.464231E-03  9.229919E-04  1.386895E-04 -9.658388E-05 -4.677036E-04 -9.382537E-04  2.713483E-03  1.167753E-03  5.945395E-04  8.822146E-05 -6.501411E-04 -9.283180E-04  6.792291E+02  1.640210E+01
        37   4 -7.634459E-04  1.190289E-03  1.269624E-03 -3.629168E-03  5.885401E-03  4.595279E-05 -6.060922E-04  7.720939E-04  9.388180E-04 -1.571847E-03  3.039073E-03 -2.496349E-05  6.568236E+02  1.087876E+01
        38   1  8.372074E-05 -1.291355E-04 -8.004316E-04  1.327121E-03 -6.054467E-04 -2.348712E-05  5.007731E-05 -9.604218E-05 -3.298368E-04  4.779873E-04 -2.610322E-04 -1.287740E-04  6.137920E+02  4.944236E+00
        38   2  5.531982E-04  6.681917E-05 -3.434821E-04  2.306497E-03 -4.940107E-03  4.161448E-04  2.153765E-04 -2.274301E-05 -4.134549E-04  1.052412E-03 -2.272000E-03  3.833463E-04  6.361080E+02  7.442304E+00
        38   3  7.880798E-04 -5.955526E-04 -7.098638E-04  1.170930E-03 -1.153646E-05 -1.334669E-04  3.125840E-04 -2.681488E-04 -2.674697E-04  4.051663E-04 -1.770805E-04 -1.257461E-04  6.137920E+02  4.944236E+00
        38   4  1.660064E-03 -2.867741E-04  6.046965E-04  1.946549E-03 -3.316866E-04 -5.680488E-04  6.574109E-04 -2.286819E-04  2.082850E-05  7.672080E-04 -3.593685E-04 -3.673092E-05  6.361080E+02  7.442304E+00
        39   1 -2.883611E-03  2.724898E-03  1.004728E-03 -4.364468E-04  6.067399E-04 -7.476694E-04 -1.905399E-03  1.897150E-03  7.064518E-04  2.653908E-05 -4.476435E-04 -5.451962E-04  6.637473E+02  1.235046E+01
        39   2 -4.052635E-03  2.212580E-03  1.348275E-03 -4.457121E-03  1.322148E-03 -1.748206E-03 -2.872780E-03  1.660495E-03  9.433816E-04 -2.122732E-03 -1.168261E-04 -1.228276E-03  6.637473E+02  1.235046E+01
        39   3 -1.738730E-03 -6.359942E-04  1.512307E-03  5.796900E-04  7.247726E-03 -1.904522E-03 -1.736543E-03 -1.298858E-04  1.735043E-03  1.160223E-03  6.657819E-03 -1.912939E-03  6.861527E+02  1.862102E+01
        39   4  3.184346E-03 -1.475040E-03 -1.675874E-04 -1.580391E-05  5.955826E-03 -1.602031E-03  2.790095E-03 -9.092106E-04  3.251330E-04  2.781618E-04  5.705495E-03 -1.633979E-03  6.861527E+02  1.862102E+01
        40   1  2.580481E-03 -3.236647E-03 -5.084897E-03 -3.871102E-03  6.119379E-03 -1.294305E-04  2.283048E-03 -3.097593E-03 -5.522899E-03 -4.056965E-03  6.742382E-03 -2.254596E-04  6.930764E+02  2.114011E+01
        40   2  1.098560E-03 -3.697057E-03 -3.494481E-03 -5.241750E-03  6.592449E-03  3.372388E-04  1.007715E-03 -3.401236E-03 -4.046194E-03 -5.490421E-03  7.080600E-03  1.410817E-04  6.930764E+02  2.114011E+01
        40   3  1.579803E-03 -2.644904E-03 -5.556865E-03 -4.960479E-03  7.730367E-03  3.322471E-04  1.623636E-03 -2.753253E-03 -5.894596E-03 -4.635626E-03  8.353900E-03  7.914141E-05  6.930764E+02  2.114011E+01
        40   4 -1.267609E-03  1.781415E-03  2.710944E-03 -3.724976E-03  3.636393E-03 -1.742657E-03 -7.271998E-04  1.509810E-03  2.388455E-03 -1.788842E-03  1.953775E-03 -1.403184E-03  6.706709E+02  1.402126E+01
        41   1 -2.884875E-03  1.168126E-03  1.666694E-03 -2.079996E-03  6.317888E-03 -2.811831E-04 -1.714065E-03  6.688350E-04  1.203211E-03 -1.591603E-04  3.542408E-03 -2.494627E-04  6.568236E+02  1.087876E+01
        41   2 -1.926125E-03  1.020962E-03  3.014921E-03 -1.144008E-03  7.277651E-04 -6.670302E-04 -9.444217E-04  5.624053E-04  1.928257E-03  3.565817E-04  2.015291E-04 -4.207053E-04  6.568236E+02  1.087876E+01
        41   3 -2.388390E-04 -2.578610E-04  2.242088E-03 -7.157707E-03 -1.424463E-04 -1.573777E-03 -9.058427E-05 -3.867952E-05  2.459457E-03 -5.368953E-03 -6.707573E-04 -1.370960E-03  6.792291E+02  1.640210E+01
        41   4  2.221078E-03  1.309974E-03  2.845604E-03  1.238325E-03  8.780208E-04 -5.210613E-04  1.216429E-03  6.893471E-04  1.863816E-03  1.214359E-03  4.313010E-04 -3.150864E-04  6.568236E+02  1.087876E+01
        42   1 -3.080407E-04 -3.442936E-04 -1.795461E-04  1.589105E-03 -1.313746E-03  3.643470E-04 -1.102542E-04 -6.128528E-05 -5.396683E-05  4.419609E-04 -4.042004E-04  1.516329E-04  6.068960E+02  4.357277E+00
        42   2  9.028642E-05 -7.220818E-04 -1.227791E-04  4.864159E-04 -1.097828E-03  2.188572E-04  2.884408E-05 -1.342756E-04 -5.322486E-06  1.043153E-05 -2.508565E-04  9.361269E-05  6.068960E+02  4.357277E+00
        42   3  8.258049E-04 -6.659353E-04 -8.853912E-04 -2.263008E-04 -1.340718E-03  1.620518E-04  2.521842E-04 -1.116404E-04 -2.905391E-04 -2.508810E-04 -4.065778E-04  4.497517E-05  6.068960E+02  4.357277E+00
        42   4 -2.088660E-03  3.609306E-04  4.135945E-04  3.727163E-03 -3.992705E-03 -5.370280E-04 -7.993925E-04 -6.823845E-05  5.723165E-05  1.686307E-03 -1.921730E-03 -7.067977E-05  6.292120E+02  6.558786E+00
        43   1  3.011345E-04  6.925974E-05 -1.342647E-03  9.034561E-04 -1.141599E-03  3.171744E-04  1.521665E-04  1.049539E-04 -4.354764E-04  1.181392E-04 -2.645918E-04  1.399070E-04  6.068960E+02  4.357277E+00
        43   2 -2.041442E-03  4.630003E-05  6.890912E-04  3.172823E-03 -4.665638E-03 -4.524873E-04 -7.650970E-04 -1.310596E-04  9.432799E-05  1.307456E-03 -2.332811E-03 -3.200878E-05  6.292120E+02  6.558786E+00
        43   3 -2.581775E-04 -5.332796E-05 -6.095232E-04  8.390741E-04 -2.172560E-03  3.501688E-04 -8.110108E-05  1.470984E-05 -2.003215E-04  1.312634E-04 -7.435667E-04  1.374793E-04  6.068960E+02  4.357277E+00
        43   4  8.756495E-04 -3.876794E-04 -1.255566E-03  7.684484E-04 -4.547513E-04  1.949571E-04  2.813259E-04 -5.953226E-05 -3.940028E-04  1.413305E-04 -4.303514E-05  4.980673E-05  6.068960E+02  4.357277E+00
        44   1 -7.865092E-04  7.072573E-05  1.001558E-03  3.906710E-03 -1.417826E-03 -3.285790E-04 -7.475931E-05 -1.469704E-04  2.713395E-04  2.041848E-03 -8.321612E-04 -1.365463E-04  6.430040E+02  8.444839E+00
        44   2  4.031855E-06 -1.886352E-04 -4.589095E-04  1.800017E-03 -1.235044E-03 -2.648149E-04  6.387571E-05 -6.953243E-05 -3.597444E-04  4.212634E-04 -6.213246E-04 -2.300087E-05  6.206880E+02  5.610262E+00
        44   3  1.892578E-03  3.632693E-04  8.292512E-04  1.419132E-03 -1.246599E-03 -1.761539E-04  8.636047E-04 -3.065086E-05  2.106683E-04  1.009575E-03 -6.258226E-04 -4.097322E-05  6.430040E+02  8.444839E+00
        44   4 -9.950111E-04  2.240785E-04 -3.744044E-04  4.043367E-03 -3.814296E-03  6.158704E-05 -1.780568E-04 -5.085272E-05 -3.870255E-04  2.131635E-03 -1.901200E-03  1.983260E-05  6.430040E+02  8.444839E+00
        45   1 -1.939402E-03  2.234465E-04  4.577138E-04  8.613219E-04 -3.635714E-03  1.444253E-04 -9.004741E-04 -1.916741E-04  1.821767E-04  4.361779E-04 -2.120914E-03  1.312342E-04  6.361080E+02  7.442304E+00
        45   2  1.245178E-03 -5.083826E-04 -8.381611E-04  7.092595E-04 -2.114427E-03 -6.857695E-05  4.383778E-04 -1.666494E-04 -3.906301E-04  3.307027E-04 -7.473785E-04  3.940508E-05  6.137920E+02  4.944236E+00
        45   3 -4.792030E-04 -3.915480E-04 -6.144900E-05  6.423750E-04 -2.038656E-03 -1.772419E-04 -1.604719E-04 -1.318690E-04 -9.217660E-05  2.967636E-04 -6.971918E-04 -2.300567E-05  6.137920E+02  4.944236E+00
        45   4 -2.158354E-03 -3.000842E-04  5.612891E-04  2.896028E-03 -3.913567E-03 -1.643156E-05 -9.896146E-04 -3.895301E-04  2.556136E-04  1.134431E-03 -2.235482E-03  8.265614E-05  6.361080E+02  7.442304E+00
        46   1  8.625469E-04 -4.046190E-04 -6.052500E-04  6.806110E-04 -1.350683E-03  1.306806E-04  2.354420E-04 -2.984534E-04 -3.202622E-04  3.279782E-04 -6.906481E-04  1.137494E-04  6.206880E+02  5.610262E+00
        46   2  6.261331E-04  4.083980E-04 -4.636395E-04  8.245524E-04 -4.693690E-03  3.526888E-04  3.302095E-04 -3.706339E-05 -3.659837E-04  4.347723E-04 -2.471929E-03  2.198580E-04  6.430040E+02  8.444839E+00
        46   3  1.756588E-03  4.206663E-04  1.021360E-03  6.466239E-04 -2.450784E-03  5.633654E-04  8.967237E-04 -6.943284E-05  3.613672E-04  2.781586E-04 -1.378306E-03  3.117635E-04  6.430040E+02  8.444839E+00
        46   4  6.497015E-04 -1.164656E-04 -2.529353E-04  2.730133E-03 -5.323412E-03  3.298051E-04  4.355053E-04 -2.435369E-04 -2.740236E-04  1.151910E-03 -2.804494E-03  1.794070E-04  6.430040E+02  8.444839E+00
        47   1 -5.505894E-03  2.100265E-03  3.092756E-03 -5.685532E-04  7.645933E-05 -5.000558E-04 -3.709723E-03  1.598206E-03  2.537631E-03  6.514075E-04 -7.702955E-04 -1.371493E-04  6.706709E+02  1.402126E+01
        47   2  7.864498E-04 -6.941057E-04 -4.873654E-03 -6.818343E-03  7.892777E-03 -6.525084E-04  9.184217E-04 -6.511408E-04 -5.241007E-03 -6.596679E-03  8.436664E-03 -9.395340E-04  6.930764E+02  2.114011E+01
        47   3 -2.136090E-03 -4.558665E-04 -9.598723E-04 -4.849354E-03  6.675878E-03 -1.131485E-05 -2.204132E-03 -3.732372E-04 -1.081805E-03 -4.629788E-03  7.257602E-03  7.244418E-06  6.930764E+02  2.114011E+01
        47   4  1.317380E-04 -3.314916E-03 -1.190657E-03 -5.351851E-03  8.193274E-03 -6.814614E-04 -1.477062E-04 -3.105317E-03 -1.362295E-03 -5.188499E-03  8.732266E-03 -1.082484E-03  6.930764E+02  2.114011E+01
        48   1  3.065155E-03  3.684541E-04  3.656427E-03 -2.736561E-03 -1.492933E-03 -2.385982E-03  1.893205E-03  3.291652E-04  2.748549E-03 -1.441104E-03 -1.036195E-03 -1.504345E-03  6.637473E+02  1.235046E+01
        48   2  1.525082E-03  1.261574E-04 -2.339740E-03 -1.064899E-03 -1.813185E-03  1.601551E-03  1.152062E-03  6.434531E-04 -1.861629E-03 -7.938666E-04 -1.859345E-03  1.594505E-03  6.861527E+02  1.862102E+01
        48   3  1.271145E-04  7.461176E-04 -1.752008E-03 -2.348548E-03  6.312332E-04  1.944902E-03  2.627256E-04  9.708554E-04 -1.303158E-03 -1.420564E-03  3.332529E-04  1.810538E-03  6.861527E+02  1.862102E+01
        48   4  9.373026E-04  6.726856E-04  2.008100E-03 -2.680814E-03  6.227989E-03 -2.193250E-03  5.850446E-04  4.271559E-04  1.651203E-03 -9.804207E-04  3.609940E-03 -1.719787E-03  6.637473E+02  1.235046E+01

 volume (element, volume) for set EALL and time  0.2500000E+02

        37  2.087500E+07
        38  2.079167E+07
        39  2.087500E+07
        40  2.087500E+07
        41  2.087500E+07
        42  2.079167E+07
        43  2.079167E+07
        44  2.079167E+07
        45  2.079167E+07
        46  2.079167E+07
        47  2.087500E+07
        48  2.087500E+07

 displacements (vx,vy,vz) for set NALL and time  0.2600000E+02

         1 -5.652774E+00 -3.852102E+00  3.152834E+00
         2 -4.303653E+00 -3.368943E+00  0.000000E+00
         3 -2.794939E+00  0.000000E+00  2.667292E+00
         4  0.000000E+00  0.000000E+00  0.000000E+00
         5  2.485258E+01 -5.880787E+00 -7.465197E+00
         6  1.987294E+01 -6.903474E+00  0.000000E+00
         7  2.372031E+01  0.000000E+00 -6.367129E+00
         8  1.601134E+01  0.000000E+00  0.000000E+00
         9  4.589612E+00 -1.330272E+01  0.000000E+00
        10  6.526130E+00  0.000000E+00  0.000000E+00
        11  4.551125E+00 -1.339619E+01  1.096093E+01
        12  6.932707E+00  0.000000E+00  1.063728E+01
        13  1.699148E+01 -3.623439E+00  0.000000E+00
        14  1.291717E+01 -1.312039E+01  0.000000E+00
        15 -1.385893E+00 -8.426398E+00  0.000000E+00
        16 -9.437166E-01 -1.807370E+00  0.000000E+00
        17  1.219704E+01  0.000000E+00  0.000000E+00
        18  2.154464E+00  0.000000E+00  0.000000E+00
        19  2.201507E+01 -3.905574E+00 -7.285389E+00
        20  1.838980E+01 -1.197517E+01  5.199958E+00
        21 -2.257634E+00 -8.194730E+00  6.567596E+00
        22 -3.428624E+00 -2.028571E+00  2.886337E+00
        23  1.686785E+01  0.000000E+00  5.996319E+00
        24  3.715980E-01  0.000000E+00  6.666168E+00
        25 -4.398852E+00 -3.624753E+00  1.773402E+00
        26  1.807706E+01 -6.053201E+00 -2.379131E+00
        27 -2.967363E-01  0.000000E+00  1.538232E+00
        28  1.708625E+01  0.000000E+00 -2.658732E+00
        29  1.236960E+01 -6.218016E+00  0.000000E+00
        30  6.231551E+00 -6.577354E+00  0.000000E+00
        31  1.581028E+00 -4.302306E+00  0.000000E+00
        32  1.705973E+01 -5.800712E+00  5.335925E+00
        33 -2.471038E-01 -4.193977E+00  6.660282E+00
        34  6.425168E+00 -6.565962E+00  1.080801E+01
        35  1.367239E+01 -1.242062E+01  2.511264E+00
        36 -1.302992E+00 -8.368414E+00  3.481135E+00
        37  4.781072E+00 -1.320795E+01  5.125262E+00
        38  1.342916E+01  0.000000E+00  3.361409E+00
        39  1.963077E+00  0.000000E+00  3.380783E+00
        40  6.925648E+00  0.000000E+00  4.934240E+00
        41 -1.404588E+00 -1.998729E+00  1.727263E+00
        42  1.630361E+01 -3.898077E+00 -2.366200E+00
        43  6.312678E+00 -6.565289E+00  5.212504E+00
        44  1.315559E+01 -6.346149E+00  2.892279E+00
        45  1.380065E+00 -4.255511E+00  3.432746E+00

 stresses (elem, integ.pnt.,sxx,syy,szz,sxy,sxz,syz) for set EALL and time  0.2600000E+02

        37   1  6.680100E+00  7.364735E+00  8.841374E+00 -4.783035E-01  7.145150E-01  1.815454E-01
        37   2  1.180134E+00  5.625018E+00  3.673115E+00 -3.976988E-01  3.093390E+00  4.572952E-02
        37   3  9.195303E+00  3.550675E+00  1.819122E+00 -7.648480E-02 -1.992111E-01 -4.708314E-01
        37   4 -8.392124E-01  3.742005E+00  3.707248E+00 -2.426174E+00  3.804615E+00  4.492373E-02
        38   1 -4.331209E-01 -9.454341E-01 -3.808390E+00  1.434270E+00 -5.930456E-01  1.675678E-01
        38   2  2.182117E+00  7.186761E-01 -2.811147E-03  1.782179E+00 -3.810351E+00  1.945671E-01
        38   3  2.791112E+00 -2.674606E+00 -3.365990E+00  1.284521E+00  2.488520E-01 -1.963089E-02
        38   4  6.925724E+00  9.287763E-01  4.002187E+00  1.584710E+00 -1.214207E-01 -5.902503E-01
        39   1 -6.298709E+00  6.606035E+00  2.615215E+00 -3.277716E-01  5.662264E-01 -4.195879E-01
        39   2 -9.481276E+00  4.668638E+00  2.683913E+00 -2.785785E+00  9.999631E-01 -9.970985E-01
        39   3 -3.868068E+00 -1.979200E+00  2.351787E+00  2.263491E-01  3.657121E+00 -9.229683E-01
        39   4  7.011732E+00 -2.620539E+00 -2.277493E-02 -4.055610E-02  2.989427E+00 -7.819924E-01
        40   1  2.738384E+00 -8.630571E+00 -1.175935E+01 -1.855676E+00  2.930173E+00 -5.304577E-02
        40   2 -3.698295E-01 -9.729043E+00 -8.870401E+00 -2.507713E+00  3.171878E+00  1.817118E-01
        40   3  3.504522E-01 -7.787353E+00 -1.304537E+01 -2.423862E+00  3.699255E+00  1.828127E-01
        40   4 -1.455237E+00  5.094629E+00  6.825592E+00 -2.226675E+00  2.146973E+00 -9.369832E-01
        41   1 -7.141999E+00  2.848785E+00  3.720493E+00 -1.603837E+00  4.002031E+00 -1.481124E-01
        41   2 -3.920770E+00  3.628366E+00  8.150743E+00 -1.031718E+00  5.304979E-01 -4.018018E-01
        41   3  1.211449E-01  3.740895E-03  4.811635E+00 -3.817381E+00  6.367395E-03 -7.912576E-01
        41   4  8.953109E+00  6.723819E+00  9.958863E+00  6.155819E-01  5.774803E-01 -3.182351E-01
        42   1 -2.424441E+00 -3.101016E+00 -1.856601E+00  2.138992E+00 -1.700642E+00  3.864551E-01
        42   2 -6.046028E-01 -5.465041E+00 -1.887810E+00  9.101289E-01 -1.599001E+00  2.312366E-01
        42   3  3.333705E+00 -5.105482E+00 -5.190568E+00  7.917288E-02 -1.746906E+00  2.203117E-01
        42   4 -8.093029E+00  1.185795E+00  1.001689E+00  3.056142E+00 -3.191184E+00 -5.907720E-01
        43   1 -2.231393E-01 -1.613693E+00 -7.794250E+00  1.496925E+00 -1.645754E+00  3.216268E-01
        43   2 -7.974989E+00 -1.011283E-01  2.168427E+00  2.715750E+00 -3.647683E+00 -5.194874E-01
        43   3 -2.352145E+00 -1.573933E+00 -3.970068E+00  1.342027E+00 -2.647169E+00  3.869778E-01
        43   4  3.449465E+00 -3.433071E+00 -7.163210E+00  1.181654E+00 -7.939859E-01  2.718191E-01
        44   1 -2.634335E+00  7.850591E-01  3.461676E+00  2.734569E+00 -9.423171E-01 -2.507082E-01
        44   2 -6.910097E-01 -1.168403E+00 -1.291267E+00  2.065798E+00 -1.016262E+00 -3.480409E-01
        44   3  7.616000E+00  3.549970E+00  4.747486E+00  8.525443E-01 -8.869193E-01 -1.535888E-01
        44   4 -4.102506E+00  2.811615E-01 -1.285902E+00  2.811363E+00 -2.713804E+00  4.334727E-02
        45   1 -6.609599E+00  8.175301E-01  8.165776E-01  6.379284E-01 -2.517808E+00  6.928605E-02
        45   2  5.461981E+00 -2.298606E+00 -2.984220E+00  6.484748E-01 -2.317746E+00 -1.754128E-01
        45   3 -2.953789E+00 -2.562876E+00 -6.188129E-01  5.904079E-01 -2.270836E+00 -2.555033E-01
        45   4 -7.775341E+00 -1.372260E+00  6.055361E-01  2.353478E+00 -2.740864E+00 -7.392955E-02
        46   1  3.975010E+00 -6.873071E-01 -1.691951E+00  5.759115E-01 -1.100190E+00  5.071980E-02
        46   2  2.218104E+00  2.155697E+00 -5.220802E-01  5.725418E-01 -3.276380E+00  2.305414E-01
        46   3  7.038009E+00  3.898757E+00  5.203275E+00  4.782956E-01 -1.666860E+00  3.881293E-01
        46   4  1.880849E+00  3.246653E-01 -1.357562E-01  2.033022E+00 -3.719231E+00  2.293775E-01
        47   1 -1.250940E+01  4.261575E+00  6.137673E+00 -5.199386E-01  2.098525E-01 -3.018427E-01
        47   2 -4.507831E-01 -3.321970E+00 -1.101000E+01 -3.321514E+00  3.790684E+00 -2.926423E-01
        47   3 -5.593349E+00 -2.372699E+00 -3.213643E+00 -2.369817E+00  3.212487E+00 -7.731837E-03
        47   4 -1.460232E+00 -8.258315E+00 -3.953520E+00 -2.599375E+00  3.950516E+00 -2.965030E-01
        48   1  1.067570E+01  4.235080E+00  1.135049E+01 -1.689268E+00 -8.539126E-01 -1.401996E+00
        48   2  2.766951E+00 -3.913686E-01 -5.143106E+00 -5.554814E-01 -8.746895E-01  7.958449E-01
        48   3 -2.497957E-01  8.621496E-01 -4.093896E+00 -1.250649E+00  3.543319E-01  9.892275E-01
        48   4  3.966874E+00  3.264137E+00  5.943083E+00 -1.755895E+00  3.752236E+00 -1.223147E+00

 internal state variables (elem, integ.pnt.,values) for set EALL and time  0.2600000E+02

        37   1  1.592055E-03  1.932114E-03  2.785542E-03 -8.074732E-04  1.159896E-03  3.084040E-04  8.029444E-04  1.154490E-03  1.910694E-03 -3.870371E-04  4.484201E-04  1.531158E-04  6.568236E+02  1.133204E+01
        37   2 -1.392240E-04  1.906551E-03  1.158067E-03 -6.339115E-04  5.330297E-03  7.418425E-05 -2.395430E-04  1.186903E-03  9.459551E-04 -1.986173E-04  2.848967E-03  2.824765E-05  6.568236E+02  1.133204E+01
        37   3  3.814398E-03  9.709013E-04  1.027053E-04 -1.219586E-04 -4.860747E-04 -1.017925E-03  3.204015E-03  1.280818E-03  5.947553E-04  6.848117E-05 -7.051401E-04 -1.055282E-03  6.792291E+02  1.708552E+01
        37   4 -8.311231E-04  1.317456E-03  1.391467E-03 -4.120472E-03  6.623797E-03  5.848459E-05 -6.830327E-04  9.000889E-04  1.070222E-03 -2.000547E-03  3.712635E-03 -1.719268E-05  6.568236E+02  1.133204E+01
        38   1  9.123584E-05 -1.329764E-04 -9.153723E-04  1.538524E-03 -6.882175E-04  1.530764E-05  5.531040E-05 -1.013804E-04 -3.950663E-04  5.934847E-04 -3.089009E-04 -1.158163E-04  6.137920E+02  5.150245E+00
        38   2  6.339562E-04  8.646396E-05 -3.343343E-04  2.609925E-03 -5.587418E-03  4.301767E-04  2.701751E-04 -1.255884E-05 -4.261067E-04  1.268891E-03 -2.734730E-03  4.077279E-04  6.361080E+02  7.752400E+00
        38   3  9.042595E-04 -6.722696E-04 -8.208837E-04  1.361779E-03  4.452328E-05 -1.272506E-04  3.778695E-04 -3.135773E-04 -3.285225E-04  5.085964E-04 -1.576651E-04 -1.276710E-04  6.137920E+02  5.150245E+00
        38   4  1.898621E-03 -3.043152E-04  7.393862E-04  2.228388E-03 -3.319968E-04 -6.910535E-04  8.204887E-04 -2.483211E-04  9.745948E-05  9.591908E-04 -3.748820E-04 -1.074480E-04  6.361080E+02  7.752400E+00
        39   1 -3.193944E-03  3.005320E-03  1.108659E-03 -5.197644E-04  7.763870E-04 -8.206410E-04 -2.244222E-03  2.212502E-03  8.229296E-04 -3.840209E-05 -3.371385E-04 -6.302315E-04  6.637473E+02  1.286507E+01
        39   2 -4.465601E-03  2.426588E-03  1.481491E-03 -5.031323E-03  1.578067E-03 -1.926475E-03 -3.340253E-03  1.911412E-03  1.097337E-03 -2.681964E-03  8.122620E-05 -1.429979E-03  6.637473E+02  1.286507E+01
        39   3 -1.891464E-03 -7.388496E-04  1.626494E-03  5.898841E-04  7.937638E-03 -2.061071E-03 -1.998933E-03 -2.444399E-04  1.955887E-03  1.231602E-03  7.772623E-03 -2.196100E-03  6.861527E+02  1.939689E+01
        39   4  3.494058E-03 -1.653101E-03 -2.264679E-04 -3.940909E-05  6.511471E-03 -1.737086E-03  3.282500E-03 -1.150978E-03  2.823842E-04  2.669934E-04  6.617122E-03 -1.873498E-03  6.861527E+02  1.939689E+01
        40   1  2.830580E-03 -3.533400E-03 -5.525286E-03 -4.203474E-03  6.641220E-03 -1.338928E-04  2.724251E-03 -3.644153E-03 -6.371156E-03 -4.701572E-03  7.759927E-03 -2.443305E-04  6.930764E+02  2.202095E+01
        40   2  1.200067E-03 -4.044165E-03 -3.781425E-03 -5.688341E-03  7.166007E-03  3.810882E-04  1.193542E-03 -4.028828E-03 -4.622808E-03 -6.361868E-03  8.181396E-03  2.032434E-04  6.930764E+02  2.202095E+01
        40   3  1.724485E-03 -2.874576E-03 -6.046400E-03 -5.420840E-03  8.388650E-03  3.783588E-04  1.890347E-03 -3.194717E-03 -6.824921E-03 -5.475525E-03  9.638946E-03  1.415568E-04  6.930764E+02  2.202095E+01
        40   4 -1.406538E-03  1.935699E-03  2.943565E-03 -4.200666E-03  4.085617E-03 -1.908094E-03 -8.910244E-04  1.724434E-03  2.714242E-03 -2.295948E-03  2.443048E-03 -1.618667E-03  6.706709E+02  1.460548E+01
        41   1 -3.208481E-03  1.303831E-03  1.830280E-03 -2.456727E-03  7.073934E-03 -3.016002E-04 -2.029998E-03  7.984951E-04  1.377060E-03 -4.401817E-04  4.251877E-03 -2.761268E-04  6.568236E+02  1.133204E+01
        41   2 -2.169748E-03  1.142919E-03  3.343780E-03 -1.417026E-03  8.454081E-04 -7.379704E-04 -1.165590E-03  6.769731E-04  2.254967E-03  1.775890E-04  2.945948E-04 -4.923128E-04  6.568236E+02  1.133204E+01
        41   3 -2.690150E-04 -3.014502E-04  2.402411E-03 -7.904974E-03 -1.067663E-04 -1.709522E-03 -1.267474E-04 -8.199936E-05  2.751178E-03 -6.391707E-03 -6.714757E-04 -1.584742E-03  6.792291E+02  1.708552E+01
        41   4  2.483766E-03  1.471070E-03  3.149825E-03  1.312200E-03  9.924835E-04 -5.784079E-04  1.464694E-03  8.380599E-04  2.169887E-03  1.325833E-03  5.333849E-04 -3.717403E-04  6.568236E+02  1.133204E+01
        42   1 -3.580077E-04 -4.250597E-04 -2.130985E-04  1.897283E-03 -1.554947E-03  4.146040E-04 -1.361596E-04 -9.898217E-05 -7.061990E-05  5.932873E-04 -5.245417E-04  1.791708E-04  6.068960E+02  4.538830E+00
        42   2  1.056972E-04 -8.890307E-04 -1.582292E-04  6.309191E-04 -1.334282E-03  2.487959E-04  3.670550E-05 -2.124805E-04 -2.109808E-05  7.435438E-05 -3.636624E-04  1.100666E-04  6.068960E+02  4.538830E+00
        42   3  9.775087E-04 -8.249103E-04 -1.040116E-03 -1.947711E-04 -1.589122E-03  1.938686E-04  3.278600E-04 -1.855212E-04 -3.688947E-04 -2.459710E-04 -5.301796E-04  6.054369E-05  6.068960E+02  4.538830E+00
        42   4 -2.398458E-03  4.638183E-04  4.996930E-04  4.216154E-03 -4.492346E-03 -6.503997E-04 -9.956850E-04 -1.666363E-05  1.049558E-04  2.013750E-03 -2.263850E-03 -1.332112E-04  6.292120E+02  6.832069E+00
        43   1  3.321917E-04  4.817103E-05 -1.579357E-03  1.133674E-03 -1.384351E-03  3.580029E-04  1.712496E-04  9.943779E-05 -5.550276E-04  2.234728E-04 -3.807975E-04  1.628545E-04  6.068960E+02  4.538830E+00
        43   2 -2.347968E-03  8.904277E-05  8.324794E-04  3.621648E-03 -5.226398E-03 -5.542857E-04 -9.582867E-04 -1.138751E-04  1.738196E-04  1.597847E-03 -2.724332E-03 -8.694063E-05  6.292120E+02  6.832069E+00
        43   3 -3.044384E-04 -7.566131E-05 -7.160978E-04  1.043505E-03 -2.539230E-03  4.015533E-04 -1.043506E-04  5.424383E-06 -2.542839E-04  2.257992E-04 -9.312768E-04  1.650274E-04  6.068960E+02  4.538830E+00
        43   4  1.031059E-03 -4.823240E-04 -1.482511E-03  9.464095E-04 -5.784455E-04  2.346086E-04  3.596569E-04 -1.032779E-04 -5.077608E-04  2.246595E-04 -9.879629E-05  6.901864E-05  6.068960E+02  4.538830E+00
        44   1 -9.410321E-04  1.120678E-04  1.170618E-03  4.378120E-03 -1.571120E-03 -3.755314E-04 -1.723849E-04 -1.282118E-04  3.855817E-04  2.419096E-03 -9.626039E-04 -1.709310E-04  6.430040E+02  8.796707E+00
        44   2 -1.350940E-05 -2.185643E-04 -4.745831E-04  2.151519E-03 -1.376704E-03 -3.275002E-04  5.779391E-05 -8.675303E-05 -3.813684E-04  6.089697E-04 -7.148109E-04 -5.450861E-05  6.206880E+02  5.844023E+00
        44   3  2.142765E-03  4.469236E-04  9.715282E-04  1.540259E-03 -1.402040E-03 -2.080978E-04  1.054292E-03  1.890651E-05  3.060934E-04  1.128390E-03 -7.480239E-04 -6.186955E-05  6.430040E+02  8.796707E+00
        44   4 -1.174197E-03  2.805528E-04 -3.843041E-04  4.524931E-03 -4.290569E-03  6.931228E-05 -2.956358E-04 -1.851198E-05 -4.103522E-04  2.519776E-03 -2.275347E-03  2.588651E-05  6.430040E+02  8.796707E+00
        45   1 -2.193309E-03  3.150272E-04  5.238875E-04  9.657511E-04 -4.020117E-03  1.498261E-04 -1.082056E-03 -1.482859E-04  2.272843E-04  5.138170E-04 -2.428304E-03  1.398874E-04  6.361080E+02  7.752400E+00
        45   2  1.448127E-03 -5.960167E-04 -9.421358E-04  7.961363E-04 -2.458139E-03 -1.018495E-04  5.483658E-04 -2.132392E-04 -4.531560E-04  3.832220E-04 -9.338261E-04  2.555494E-05  6.137920E+02  5.150245E+00
        45   3 -5.602403E-04 -4.579664E-04 -4.731981E-05  7.217746E-04 -2.378018E-03 -2.195939E-04 -2.038349E-04 -1.673721E-04 -8.908908E-05  3.445825E-04 -8.797679E-04 -4.341007E-05  6.137920E+02  5.150245E+00
        45   4 -2.443140E-03 -2.862341E-04  6.354717E-04  3.314306E-03 -4.337176E-03 -3.815387E-05 -1.192494E-03 -3.984716E-04  3.084177E-04  1.419684E-03 -2.569907E-03  7.406280E-05  6.361080E+02  7.752400E+00
        46   1  1.020284E-03 -4.237643E-04 -6.718450E-04  7.626497E-04 -1.502798E-03  1.315423E-04  3.215932E-04 -3.194086E-04 -3.650735E-04  3.809062E-04 -7.918917E-04  1.186294E-04  6.206880E+02  5.844023E+00
        46   2  6.992211E-04  5.038723E-04 -4.966100E-04  9.225272E-04 -5.256852E-03  3.893229E-04  3.897751E-04  1.916957E-05 -4.024007E-04  5.138414E-04 -2.924004E-03  2.517612E-04  6.430040E+02  8.796707E+00
        46   3  1.969920E-03  5.252172E-04  1.177915E-03  7.340095E-04 -2.729119E-03  6.289964E-04  1.066845E-03 -9.253186E-06  4.721058E-04  3.440024E-04 -1.608640E-03  3.653104E-04  6.430040E+02  8.796707E+00
        46   4  7.100523E-04 -9.649084E-05 -2.569139E-04  3.104023E-03 -5.963181E-03  3.689920E-04  4.916814E-04 -2.424105E-04 -2.887972E-04  1.431706E-03 -3.317603E-03  2.110327E-04  6.430040E+02  8.796707E+00
        47   1 -6.091948E-03  2.302093E-03  3.377650E-03 -7.389533E-04  1.750068E-04 -5.663172E-04 -4.414676E-03  1.858838E-03  2.916735E-03  5.367470E-04 -7.260602E-04 -2.061407E-04  6.706709E+02  1.460548E+01
        47   2  8.561411E-04 -7.588137E-04 -5.297971E-03 -7.443073E-03  8.574835E-03 -6.933890E-04  1.050253E-03 -7.687828E-04 -6.054921E-03 -7.747902E-03  9.752718E-03 -1.042082E-03  6.930764E+02  2.202095E+01
        47   3 -2.326983E-03 -5.009990E-04 -1.041858E-03 -5.299132E-03  7.256590E-03 -1.399147E-05 -2.562848E-03 -4.515629E-04 -1.241468E-03 -5.450763E-03  8.372286E-03  4.672775E-06  6.930764E+02  2.202095E+01
        47   4  1.592114E-04 -3.623228E-03 -1.290847E-03 -5.836744E-03  8.912210E-03 -7.173872E-04 -1.192527E-04 -3.666862E-03 -1.559738E-03 -6.089911E-03  1.010283E-02 -1.186853E-03  6.930764E+02  2.202095E+01
        48   1  3.407472E-03  3.975600E-04  4.014896E-03 -3.078209E-03 -1.646401E-03 -2.649573E-03  2.258037E-03  3.684950E-04  3.165012E-03 -1.780363E-03 -1.208908E-03 -1.787257E-03  6.637473E+02  1.286507E+01
        48   2  1.684143E-03  9.341101E-05 -2.595663E-03 -1.178607E-03 -1.959380E-03  1.745562E-03  1.392132E-03  6.451639E-04 -2.234640E-03 -9.625420E-04 -2.127801E-03  1.837509E-03  6.861527E+02  1.939689E+01
        48   3  1.326845E-04  7.888132E-04 -1.954319E-03 -2.617321E-03  7.151853E-04  2.134807E-03  2.796959E-04  1.074420E-03 -1.586692E-03 -1.799680E-03  4.397805E-04  2.111578E-03  6.861527E+02  1.939689E+01
        48   4  1.044468E-03  7.411983E-04  2.188309E-03 -3.065311E-03  6.960648E-03 -2.402579E-03  6.975421E-04  5.047375E-04  1.873662E-03 -1.331487E-03  4.365177E-03 -1.967456E-03  6.637473E+02  1.286507E+01

 volume (element, volume) for set EALL and time  0.2600000E+02

        37  2.087500E+07
        38  2.079167E+07
        39  2.087500E+07
        40  2.087500E+07
        41  2.087500E+07
        42  2.079167E+07
        43  2.079167E+07
        44  2.079167E+07
        45  2.079167E+07
        46  2.079167E+07
        47  2.087500E+07
        48  2.087500E+07

 displacements (vx,vy,vz) for set NALL and time  0.2700000E+02

         1 -4.986076E+00 -4.364658E+00  3.729637E+00
         2 -4.176026E+00 -3.808916E+00  0.000000E+00
         3 -2.494426E+00  0.000000E+00  3.172525E+00
         4  0.000000E+00  0.000000E+00  0.000000E+00
         5  2.658617E+01 -3.625165E+00 -1.098903E+01
         6  2.028382E+01 -4.738350E+00  0.000000E+00
         7  2.453080E+01  0.000000E+00 -9.797873E+00
         8  1.513053E+01  0.000000E+00  0.000000E+00
         9  5.292526E+00 -1.363641E+01  0.000000E+00
        10  6.712437E+00  0.000000E+00  0.000000E+00
        11  5.956693E+00 -1.375382E+01  1.117919E+01
        12  7.880379E+00  0.000000E+00  1.082364E+01
        13  1.644529E+01 -2.569646E+00  0.000000E+00
        14  1.379959E+01 -1.255886E+01  0.000000E+00
        15 -1.003373E+00 -8.876217E+00  0.000000E+00
        16 -8.881993E-01 -2.045239E+00  0.000000E+00
        17  1.219272E+01  0.000000E+00  0.000000E+00
        18  2.270413E+00  0.000000E+00  0.000000E+00
        19  2.280629E+01 -2.901494E+00 -1.079417E+01
        20  2.062251E+01 -1.128939E+01  3.925656E+00
        21 -1.307098E+00 -8.594114E+00  6.926974E+00
        22 -3.009802E+00 -2.305474E+00  3.424379E+00
        23  1.816910E+01  0.000000E+00  4.809052E+00
        24  9.376815E-01  0.000000E+00  7.059308E+00
        25 -4.083740E+00 -4.100964E+00  2.093271E+00
        26  1.845553E+01 -3.811901E+00 -3.979511E+00
        27 -1.627006E-01  0.000000E+00  1.819914E+00
        28  1.653268E+01  0.000000E+00 -4.304529E+00
        29  1.257945E+01 -5.904518E+00  0.000000E+00
        30  6.562142E+00 -6.732830E+00  0.000000E+00
        31  1.805747E+00 -4.534002E+00  0.000000E+00
        32  1.855206E+01 -5.439321E+00  4.078199E+00
        33  4.239566E-01 -4.407296E+00  7.046920E+00
        34  7.493857E+00 -6.724555E+00  1.101210E+01
        35  1.479934E+01 -1.178667E+01  1.867364E+00
        36 -7.419437E-01 -8.803529E+00  3.685906E+00
        37  5.676011E+00 -1.353179E+01  5.185755E+00
        38  1.375452E+01  0.000000E+00  2.813543E+00
        39  2.223607E+00  0.000000E+00  3.585114E+00
        40  7.333463E+00  0.000000E+00  4.975808E+00
        41 -1.221490E+00 -2.271780E+00  2.042336E+00
        42  1.586695E+01 -2.887769E+00 -3.969354E+00
        43  6.834526E+00 -6.719460E+00  5.287461E+00
        44  1.363643E+01 -6.048900E+00  2.293137E+00
        45  1.749410E+00 -4.479214E+00  3.635268E+00

 stresses (elem, integ.pnt.,sxx,syy,szz,sxy,sxz,syz) for set EALL and time  0.2700000E+02

        37   1  7.217079E+00  7.953916E+00  9.519210E+00 -5.220664E-01  7.870703E-01  1.978456E-01
        37   2  1.284408E+00  6.063668E+00  3.927709E+00 -4.381410E-01  3.366103E+00  5.024016E-02
        37   3  9.848011E+00  3.701462E+00  1.834129E+00 -8.840207E-02 -2.010191E-01 -5.009625E-01
        37   4 -8.853843E-01  4.020964E+00  3.968976E+00 -2.643720E+00  4.131764E+00  5.087845E-02
        38   1 -4.670692E-01 -1.000780E+00 -4.113098E+00  1.553983E+00 -6.399580E-01  1.951173E-01
        38   2  2.388115E+00  8.095054E-01  8.617172E-02  1.922756E+00 -4.113703E+00  1.974511E-01
        38   3  3.017638E+00 -2.875724E+00 -3.649592E+00  1.391713E+00  2.850078E-01 -1.257386E-02
        38   4  7.529236E+00  1.055552E+00  4.424820E+00  1.718477E+00 -1.183738E-01 -6.537355E-01
        39   1 -6.784373E+00  7.079597E+00  2.804945E+00 -3.655451E-01  6.497809E-01 -4.478153E-01
        39   2 -1.017667E+01  4.980066E+00  2.850442E+00 -3.031097E+00  1.115491E+00 -1.068601E+00
        39   3 -4.149512E+00 -2.221922E+00  2.452443E+00  2.264023E-01  3.924345E+00 -9.760774E-01
        39   4  7.501385E+00 -2.904670E+00 -1.272587E-01 -5.177387E-02  3.206331E+00 -8.304535E-01
        40   1  2.955585E+00 -9.214479E+00 -1.253653E+01 -1.974324E+00  3.120703E+00 -5.364970E-02
        40   2 -3.911277E-01 -1.040203E+01 -9.436870E+00 -2.665577E+00  3.382182E+00  1.992213E-01
        40   3  3.897854E-01 -8.297036E+00 -1.392022E+01 -2.591159E+00  3.936130E+00  2.010103E-01
        40   4 -1.579306E+00  5.391588E+00  7.232514E+00 -2.425852E+00  2.336936E+00 -1.001559E+00
        41   1 -7.685528E+00  3.071010E+00  3.980598E+00 -1.774301E+00  4.335264E+00 -1.555020E-01
        41   2 -4.260755E+00  3.912381E+00  8.770830E+00 -1.163321E+00  5.865706E-01 -4.302534E-01
        41   3  9.389578E-02 -5.814490E-02  5.034041E+00 -4.113863E+00  2.624121E-02 -8.369298E-01
        41   4  9.657477E+00  7.264831E+00  1.071891E+01  6.385240E-01  6.290385E-01 -3.414802E-01
        42   1 -2.634192E+00 -3.395756E+00 -2.026312E+00  2.330809E+00 -1.853149E+00  4.154384E-01
        42   2 -6.756784E-01 -5.993677E+00 -2.081197E+00  1.004940E+00 -1.752311E+00  2.493960E-01
        42   3  3.621974E+00 -5.600862E+00 -5.650595E+00  1.057133E-01 -1.903912E+00  2.406469E-01
        42   4 -8.754604E+00  1.359522E+00  1.134149E+00  3.292083E+00 -3.434661E+00 -6.513045E-01
        43   1 -2.808533E-01 -1.805651E+00 -8.488688E+00  1.647708E+00 -1.800086E+00  3.449759E-01
        43   2 -8.629553E+00 -5.016208E-02  2.418786E+00  2.936686E+00 -3.916860E+00 -5.736366E-01
        43   3 -2.559147E+00 -1.728353E+00 -4.320121E+00  1.474034E+00 -2.872939E+00  4.167118E-01
        43   4  3.743728E+00 -3.766174E+00 -7.803917E+00  1.295332E+00 -8.773079E-01  2.967092E-01
        44   1 -2.904406E+00  8.953017E-01  3.809682E+00  2.946481E+00 -1.008340E+00 -2.733306E-01
        44   2 -7.601232E-01 -1.260599E+00 -1.327420E+00  2.261810E+00 -1.087292E+00 -3.836988E-01
        44   3  8.264093E+00  3.906993E+00  5.206573E+00  9.002071E-01 -9.580841E-01 -1.701150E-01
        44   4 -4.486252E+00  3.412245E-01 -1.336051E+00  3.023980E+00 -2.926627E+00  4.520765E-02
        45   1 -7.128704E+00  9.815705E-01  9.090734E-01  6.857865E-01 -2.691426E+00  7.085063E-02
        45   2  5.936327E+00 -2.494007E+00 -3.198333E+00  6.952252E-01 -2.516767E+00 -1.970529E-01
        45   3 -3.209371E+00 -2.780326E+00 -6.415763E-01  6.327835E-01 -2.468431E+00 -2.811738E-01
        45   4 -8.392823E+00 -1.400449E+00  6.696380E-01  2.549188E+00 -2.933102E+00 -8.640373E-02
        46   1  4.360309E+00 -6.707979E-01 -1.783945E+00  6.172668E-01 -1.176252E+00  4.960869E-02
        46   2  2.400473E+00  2.404420E+00 -5.142825E-01  6.153506E-01 -3.528819E+00  2.470682E-01
        46   3  7.605366E+00  4.301829E+00  5.683669E+00  5.171204E-01 -1.790202E+00  4.183973E-01
        46   4  2.015549E+00  4.098758E-01 -9.750612E-02  2.198833E+00 -4.006987E+00  2.475402E-01
        47   1 -1.346849E+01  4.522805E+00  6.517205E+00 -6.015941E-01  2.625127E-01 -3.250547E-01
        47   2 -4.706137E-01 -3.547093E+00 -1.174221E+01 -3.549811E+00  4.038393E+00 -3.061474E-01
        47   3 -5.974650E+00 -2.539076E+00 -3.429396E+00 -2.535353E+00  3.427504E+00 -8.916353E-03
        47   4 -1.534182E+00 -8.826189E+00 -4.212597E+00 -2.774743E+00  4.215625E+00 -3.072311E-01
        48   1  1.148915E+01  4.529253E+00  1.216109E+01 -1.837242E+00 -9.154438E-01 -1.509832E+00
        48   2  2.954226E+00 -5.223026E-01 -5.612824E+00 -6.007429E-01 -9.248786E-01  8.514382E-01
        48   3 -3.001059E-01  8.457264E-01 -4.492083E+00 -1.355821E+00  3.911331E-01  1.066006E+00
        48   4  4.271077E+00  3.481337E+00  6.338191E+00 -1.925777E+00  4.062842E+00 -1.309544E+00

 internal state variables (elem, integ.pnt.,values) for set EALL and time  0.2700000E+02

        37   1  1.777129E-03  2.143781E-03  3.063115E-03 -9.088493E-04  1.321600E-03  3.464543E-04  9.797042E-04  1.364203E-03  2.202797E-03 -4.794749E-04  5.871720E-04  1.881729E-04  6.568236E+02  1.178532E+01
        37   2 -1.387845E-04  2.108985E-03  1.255306E-03 -7.260671E-04  5.963617E-03  8.450947E-05 -2.488297E-04  1.391453E-03  1.060654E-03 -2.758520E-04  3.445848E-03  3.711559E-05  6.568236E+02  1.178532E+01
        37   3  4.170336E-03  1.014976E-03  6.084359E-05 -1.489675E-04 -5.015635E-04 -1.098295E-03  3.732623E-03  1.397297E-03  5.890056E-04  4.550936E-05 -7.608996E-04 -1.190671E-03  6.792291E+02  1.776894E+01
        37   4 -9.003179E-04  1.447910E-03  1.516340E-03 -4.629095E-03  7.388242E-03  7.163888E-05 -7.651302E-04  1.037935E-03  1.211020E-03 -2.469024E-03  4.445985E-03 -8.340212E-06  6.568236E+02  1.178532E+01
        38   1  9.918253E-05 -1.366673E-04 -1.035734E-03  1.759783E-03 -7.748422E-04  5.715590E-05  6.092752E-05 -1.067842E-04 -4.657535E-04  7.189796E-04 -3.606823E-04 -1.005849E-04  6.137920E+02  5.356255E+00
        38   2  7.178760E-04  1.070716E-04 -3.229853E-04  2.923443E-03 -6.257277E-03  4.435099E-04  3.298635E-04 -1.115387E-06 -4.375403E-04  1.503097E-03 -3.235645E-03  4.325092E-04  6.361080E+02  8.062496E+00
        38   3  1.025789E-03 -7.521858E-04 -9.374192E-04  1.561343E-03  1.041990E-04 -1.199551E-04  4.486256E-04 -3.625007E-04 -3.949453E-04  6.209877E-04 -1.352451E-04 -1.290234E-04  6.137920E+02  5.356255E+00
        38   4  2.145961E-03 -3.218588E-04  8.811892E-04  2.520602E-03 -3.312823E-04 -8.201869E-04  9.978099E-04 -2.687758E-04  1.829089E-04  1.168000E-03 -3.900405E-04 -1.860861E-04  6.361080E+02  8.062496E+00
        39   1 -3.511686E-03  3.291143E-03  1.215114E-03 -6.067289E-04  9.566430E-04 -8.945065E-04 -2.609743E-03  2.551493E-03  9.483646E-04 -1.111339E-04 -2.095742E-04 -7.212257E-04  6.637473E+02  1.337967E+01
        39   2 -4.887190E-03  2.644222E-03  1.615583E-03 -5.623452E-03  1.845022E-03 -2.108097E-03 -3.842789E-03  2.180183E-03  1.261887E-03 -3.292180E-03  3.031463E-04 -1.646680E-03  6.637473E+02  1.337967E+01
        39   3 -2.045025E-03 -8.480742E-04  1.739476E-03  5.976659E-04  8.638101E-03 -2.215131E-03 -2.279396E-03 -3.734620E-04  2.189522E-03  1.303212E-03  8.971753E-03 -2.496465E-03  6.861527E+02  2.017277E+01
        39   4  3.808283E-03 -1.837513E-03 -2.910421E-04 -6.476613E-05  7.076665E-03 -1.871695E-03  3.812671E-03 -1.415944E-03  2.305436E-04  2.523900E-04  7.597080E-03 -2.128532E-03  6.861527E+02  2.017277E+01
        40   1  3.081818E-03 -3.830293E-03 -5.967026E-03 -4.534062E-03  7.163404E-03 -1.376088E-04  3.198901E-03 -4.229912E-03 -7.278044E-03 -5.389298E-03  8.846441E-03 -2.634891E-04  6.930764E+02  2.290179E+01
        40   2  1.301173E-03 -4.391708E-03 -4.068198E-03 -6.131413E-03  7.740608E-03  4.260691E-04  1.392595E-03 -4.702378E-03 -5.237201E-03 -7.290799E-03  9.358263E-03  2.716449E-04  6.930764E+02  2.290179E+01
        40   3  1.870612E-03 -3.103749E-03 -6.537745E-03 -5.880934E-03  9.044851E-03  4.255196E-04  2.176723E-03 -3.666273E-03 -7.820544E-03 -6.376038E-03  1.100998E-02  2.104772E-04  6.930764E+02  2.290179E+01
        40   4 -1.545591E-03  2.089560E-03  3.176873E-03 -4.690468E-03  4.549128E-03 -2.075938E-03 -1.067050E-03  1.952394E-03  3.060641E-03 -2.850045E-03  2.977064E-03 -1.849539E-03  6.706709E+02  1.518970E+01
        41   1 -3.539738E-03  1.443208E-03  1.998054E-03 -2.848438E-03  7.855871E-03 -3.220312E-04 -2.370735E-03  9.387288E-04  1.563568E-03 -7.523339E-04  5.022273E-03 -3.041819E-04  6.568236E+02  1.178532E+01
        41   2 -2.420428E-03  1.268404E-03  3.682162E-03 -1.704337E-03  9.688981E-04 -8.101561E-04 -1.405913E-03  8.011284E-04  2.607532E-03 -2.524062E-05  3.978160E-04 -5.691978E-04  6.568236E+02  1.178532E+01
        41   3 -2.994570E-04 -3.475926E-04  2.559461E-03 -8.667027E-03 -6.694128E-05 -1.843112E-03 -1.661020E-04 -1.307717E-04  3.058035E-03 -7.496677E-03 -6.669328E-04 -1.811579E-03  6.792291E+02  1.776894E+01
        41   4  2.753189E-03  1.637016E-03  3.462575E-03  1.384448E-03  1.111347E-03 -6.368690E-04  1.733289E-03  9.995074E-04  2.499773E-03  1.441717E-03  6.448716E-04 -4.327004E-04  6.568236E+02  1.178532E+01
        42   1 -4.104771E-04 -5.103937E-04 -2.485472E-04  2.221780E-03 -1.809342E-03  4.670679E-04 -1.643014E-04 -1.404774E-04 -8.885043E-05  7.587168E-04 -6.560693E-04  2.088493E-04  6.068960E+02  4.720384E+00
        42   2  1.216818E-04 -1.065339E-03 -1.958803E-04  7.840479E-04 -1.584416E-03  2.802185E-04  4.518721E-05 -2.985079E-04 -3.860966E-05  1.452320E-04 -4.876961E-04  1.278551E-04  6.068960E+02  4.720384E+00
        42   3  1.137260E-03 -9.929193E-04 -1.203019E-03 -1.601758E-04 -1.851103E-03  2.274719E-04  4.104837E-04 -2.668934E-04 -4.543264E-04 -2.391283E-04 -6.652982E-04  7.760400E-05  6.068960E+02  4.720384E+00
        42   4 -2.720643E-03  5.719082E-04  5.900076E-04  4.722492E-03 -5.010325E-03 -7.694331E-04 -1.209086E-03  4.098249E-05  1.577114E-04  2.367410E-03 -2.632976E-03 -2.024072E-04  6.292120E+02  7.105351E+00
        43   1  3.644318E-04  2.526446E-05 -1.828605E-03  1.377550E-03 -1.640577E-03  4.005811E-04  1.915921E-04  9.271058E-05 -6.854131E-04  3.398573E-04 -5.083297E-04  1.875258E-04  6.068960E+02  4.720384E+00
        43   2 -2.666768E-03  1.343080E-04  9.828367E-04  4.087636E-03 -5.806593E-03 -6.611169E-04 -1.168411E-03 -9.403904E-05  2.616718E-04  1.912744E-03 -3.145753E-03 -1.478386E-04  6.292120E+02  7.105351E+00
        43   3 -3.530572E-04 -9.942501E-05 -8.283599E-04  1.259707E-03 -2.924779E-03  4.552179E-04 -1.296851E-04 -4.970078E-06 -3.131391E-04  3.300230E-04 -1.135579E-03  1.947723E-04  6.068960E+02  4.720384E+00
        43   4  1.194660E-03 -5.823502E-04 -1.721660E-03  1.134367E-03 -7.099249E-04  2.764025E-04  4.450872E-04 -1.514847E-04 -6.319702E-04  3.163339E-04 -1.606517E-04  9.006015E-05  6.068960E+02  4.720384E+00
        44   1 -1.102137E-03  1.556519E-04  1.347560E-03  4.864424E-03 -1.728268E-03 -4.244937E-04 -2.805457E-04 -1.064597E-04  5.115973E-04  2.826598E-03 -1.102525E-03 -2.085203E-04  6.430040E+02  9.148576E+00
        44   2 -3.219184E-05 -2.499681E-04 -4.895795E-04  2.520539E-03 -1.523427E-03 -3.934773E-04  5.069325E-05 -1.055444E-04 -4.033007E-04  8.151944E-04 -8.150522E-04 -8.937842E-05  6.206880E+02  6.077784E+00
        44   3  2.401503E-03  5.345204E-04  1.120434E-03  1.662837E-03 -1.562846E-03 -2.418015E-04  1.261271E-03  7.430506E-05  4.114250E-04  1.254115E-03 -8.803661E-04 -8.508884E-05  6.430040E+02  9.148576E+00
        44   4 -1.360300E-03  3.395275E-04 -3.931760E-04  5.020399E-03 -4.781547E-03  7.673804E-05 -4.251713E-04  1.771357E-05 -4.338268E-04  2.938345E-03 -2.679935E-03  3.223855E-05  6.430040E+02  9.148576E+00
        45   1 -2.456870E-03  4.119347E-04  5.927768E-04  1.073481E-03 -4.415784E-03  1.551013E-04 -1.278908E-03 -9.872511E-05  2.764436E-04  5.974950E-04 -2.757603E-03  1.487460E-04  6.361080E+02  8.062496E+00
        45   2  1.660998E-03 -6.880359E-04 -1.050555E-03  8.865029E-04 -2.818807E-03 -1.372928E-04  6.681141E-04 -2.640788E-04 -5.204568E-04  4.396521E-04 -1.136857E-03  9.912840E-06  6.137920E+02  5.356255E+00
        45   3 -6.454715E-04 -5.276479E-04 -3.199989E-05  8.042957E-04 -2.734353E-03 -2.642921E-04 -2.511769E-04 -2.060750E-04 -8.514575E-05  3.959518E-04 -1.078799E-03 -6.594841E-05  6.137920E+02  5.356255E+00
        45   4 -2.738586E-03 -2.701786E-04  7.124523E-04  3.747129E-03 -4.773499E-03 -6.135587E-05 -1.412441E-03 -4.059751E-04  3.656750E-04  1.729604E-03 -2.928584E-03  6.392740E-05  6.361080E+02  8.062496E+00
        46   1  1.185547E-03 -4.426840E-04 -7.409228E-04  8.476740E-04 -1.660303E-03  1.320398E-04  4.159357E-04 -3.409539E-04 -4.130966E-04  4.377650E-04 -9.003716E-04  1.234104E-04  6.206880E+02  6.077784E+00
        46   2  7.741068E-04  6.041725E-04 -5.297465E-04  1.023187E-03 -5.837587E-03  4.271272E-04  4.538453E-04  8.218773E-05 -4.406153E-04  5.990489E-04 -3.412141E-03  2.860201E-04  6.430040E+02  9.148576E+00
        46   3  2.189489E-03  6.352654E-04  1.341364E-03  8.240163E-04 -3.015639E-03  6.969572E-04  1.250475E-03  5.843402E-05  5.936001E-04  4.154037E-04 -1.856615E-03  4.231626E-04  6.430040E+02  9.148576E+00
        46   4  7.716552E-04 -7.450151E-05 -2.598990E-04  3.489064E-03 -6.623258E-03  4.096060E-04  5.514926E-04 -2.394992E-04 -3.034192E-04  1.735258E-03 -3.871805E-03  2.452420E-04  6.430040E+02  9.148576E+00
        47   1 -6.687598E-03  2.505213E-03  3.665022E-03 -9.198587E-04  2.824790E-04 -6.322448E-04 -5.174554E-03  2.137618E-03  3.321708E-03  4.031770E-04 -6.698034E-04 -2.808016E-04  6.706709E+02  1.518970E+01
        47   2  9.274803E-04 -8.236986E-04 -5.723462E-03 -8.068329E-03  9.256389E-03 -7.332289E-04  1.191941E-03 -8.950311E-04 -6.925275E-03 -8.981738E-03  1.115853E-02 -1.149603E-03  6.930764E+02  2.290179E+01
        47   3 -2.518557E-03 -5.462171E-04 -1.124278E-03 -5.750119E-03  7.839828E-03 -1.682860E-05 -2.947017E-03 -5.358761E-04 -1.412120E-03 -6.331550E-03  9.564583E-03  1.683375E-06  6.930764E+02  2.290179E+01
        47   4  1.875090E-04 -3.931846E-03 -1.391466E-03 -6.320705E-03  9.633507E-03 -7.515786E-04 -8.684318E-05 -4.269197E-03 -1.770569E-03 -7.054904E-03  1.156916E-02 -1.295261E-03  6.930764E+02  2.290179E+01
        48   1  3.757766E-03  4.265422E-04  4.380879E-03 -3.431459E-03 -1.802727E-03 -2.919124E-03  2.652244E-03  4.100211E-04  3.611922E-03 -2.150309E-03 -1.394521E-03 -2.092720E-03  6.637473E+02  1.337967E+01
        48   2  1.845257E-03  5.605786E-05 -2.860748E-03 -1.294817E-03 -2.103525E-03  1.891618E-03  1.651494E-03  6.412490E-04 -2.641008E-03 -1.145417E-03 -2.412431E-03  2.098053E-03  6.861527E+02  2.017277E+01
        48   3  1.388792E-04  8.288029E-04 -2.165428E-03 -2.890933E-03  8.032500E-04  2.329683E-03  2.975604E-04  1.181875E-03 -1.897208E-03 -2.211935E-03  5.576877E-04  2.436646E-03  6.861527E+02  2.017277E+01
        48   4  1.155049E-03  8.094400E-04  2.371504E-03 -3.464521E-03  7.714970E-03 -2.616938E-03  8.195811E-04  5.874968E-04  2.111130E-03 -1.717710E-03  5.185011E-03 -2.233146E-03  6.637473E+02  1.337967E+01

 volume (element, volume) for set EALL and time  0.2700000E+02

        37  2.087500E+07
        38  2.079167E+07
        39  2.087500E+07
        40  2.087500E+07
        41  2.087500E+07
        42  2.079167E+07
        43  2.079167E+07
        44  2.079167E+07
        45  2.079167E+07
        46  2.079167E+07
        47  2.087500E+07
        48  2.087500E+07

 displacements (vx,vy,vz) for set NALL and time  0.2800000E+02

         1 -4.250145E+00 -4.883010E+00  4.314395E+00
         2 -4.024973E+00 -4.250969E+00  0.000000E+00
         3 -2.160799E+00  0.000000E+00  3.681920E+00
         4  0.000000E+00  0.000000E+00  0.000000E+00
         5  2.832882E+01 -1.155717E+00 -1.479740E+01
         6  2.061727E+01 -2.363752E+00  0.000000E+00
         7  2.528500E+01  0.000000E+00 -1.350926E+01
         8  1.408856E+01  0.000000E+00  0.000000E+00
         9  6.013357E+00 -1.393171E+01  0.000000E+00
        10  6.872333E+00  0.000000E+00  0.000000E+00
        11  7.433288E+00 -1.407429E+01  1.134958E+01
        12  8.858501E+00  0.000000E+00  1.096092E+01
        13  1.575940E+01 -1.413100E+00  0.000000E+00
        14  1.467550E+01 -1.189026E+01  0.000000E+00
        15 -5.976614E-01 -9.312427E+00  0.000000E+00
        16 -8.255684E-01 -2.285046E+00  0.000000E+00
        17  1.211901E+01  0.000000E+00  0.000000E+00
        18  2.378305E+00  0.000000E+00  0.000000E+00
        19  2.354378E+01 -1.797920E+00 -1.458667E+01
        20  2.293278E+01 -1.049269E+01  2.506523E+00
        21 -2.871459E-01 -8.976903E+00  7.265531E+00
        22 -2.547076E+00 -2.586456E+00  3.968381E+00
        23  1.948529E+01  0.000000E+00  3.479316E+00
        24  1.536725E+00  0.000000E+00  7.433893E+00
        25 -3.730623E+00 -4.581075E+00  2.418831E+00
        26  1.875820E+01 -1.357633E+00 -5.712671E+00
        27 -1.724615E-02  0.000000E+00  2.105188E+00
        28  1.583793E+01  0.000000E+00 -6.086105E+00
        29  1.273475E+01 -5.536165E+00  0.000000E+00
        30  6.877563E+00 -6.868468E+00  0.000000E+00
        31  2.032176E+00 -4.759073E+00  0.000000E+00
        32  2.007224E+01 -5.021695E+00  2.676052E+00
        33  1.137569E+00 -4.612928E+00  7.414524E+00
        34  8.603317E+00 -6.863481E+00  1.116785E+01
        35  1.593498E+01 -1.104403E+01  1.150733E+00
        36 -1.445111E-01 -9.224149E+00  3.881413E+00
        37  6.602468E+00 -1.381670E+01  5.219694E+00
        38  1.403096E+01  0.000000E+00  2.197511E+00
        39  2.487859E+00  0.000000E+00  3.780565E+00
        40  7.730298E+00  0.000000E+00  4.990108E+00
        41 -1.019761E+00 -2.548750E+00  2.362928E+00
        42  1.529951E+01 -1.777524E+00 -5.705484E+00
        43  7.355571E+00 -6.853534E+00  5.336776E+00
        44  1.408031E+01 -5.698396E+00  1.623482E+00
        45  2.132286E+00 -4.695832E+00  3.828551E+00

 stresses (elem, integ.pnt.,sxx,syy,szz,sxy,sxz,syz) for set EALL and time  0.2800000E+02

        37   1  7.754347E+00  8.548154E+00  1.020278E+01 -5.667707E-01  8.624553E-01  2.144892E-01
        37   2  1.388440E+00  6.505342E+00  4.182985E+00 -4.797053E-01  3.645113E+00  5.487901E-02
        37   3  1.049510E+01  3.835054E+00  1.830056E+00 -1.009627E-01 -2.005540E-01 -5.306538E-01
        37   4 -9.315012E-01  4.301691E+00  4.232203E+00 -2.865520E+00  4.465680E+00  5.704765E-02
        38   1 -5.006683E-01 -1.055774E+00 -4.420394E+00  1.674645E+00 -6.873532E-01  2.236082E-01
        38   2  2.597809E+00  9.029705E-01  1.821387E-01  2.063381E+00 -4.418308E+00  1.996887E-01
        38   3  3.246241E+00 -3.077480E+00 -3.936420E+00  1.499481E+00  3.218679E-01 -5.007950E-03
        38   4  8.138960E+00  1.186677E+00  4.858929E+00  1.853057E+00 -1.147555E-01 -7.188164E-01
        39   1 -7.272954E+00  7.551932E+00  2.995792E+00 -4.046481E-01  7.381646E-01 -4.754021E-01
        39   2 -1.087346E+01  5.287968E+00  3.008108E+00 -3.280577E+00  1.234415E+00 -1.139703E+00
        39   3 -4.430215E+00 -2.480333E+00  2.542162E+00  2.248237E-01  4.191653E+00 -1.025711E+00
        39   4  7.985946E+00 -3.203305E+00 -2.494852E-01 -6.374208E-02  3.424275E+00 -8.771995E-01
        40   1  3.168892E+00 -9.784968E+00 -1.329681E+01 -2.088885E+00  3.306283E+00 -5.379222E-02
        40   2 -4.131745E-01 -1.105947E+01 -9.988626E+00 -2.817243E+00  3.587342E+00  2.169126E-01
        40   3  4.314345E-01 -8.793493E+00 -1.477606E+01 -2.753838E+00  4.165257E+00  2.192217E-01
        40   4 -1.697008E+00  5.677047E+00  7.625924E+00 -2.628457E+00  2.530908E+00 -1.065704E+00
        41   1 -8.229284E+00  3.295477E+00  4.242949E+00 -1.948376E+00  4.675057E+00 -1.624815E-01
        41   2 -4.604124E+00  4.199522E+00  9.397593E+00 -1.300359E+00  6.449923E-01 -4.582517E-01
        41   3  6.321743E-02 -1.286114E-01  5.236877E+00 -4.412289E+00  4.834424E-02 -8.794673E-01
        41   4  1.036474E+01  7.811103E+00  1.148550E+01  6.592017E-01  6.819322E-01 -3.644245E-01
        42   1 -2.846192E+00 -3.694349E+00 -2.198823E+00  2.524532E+00 -2.008005E+00  4.443936E-01
        42   2 -7.494853E-01 -6.529266E+00 -2.278372E+00  1.101199E+00 -1.908557E+00  2.677507E-01
        42   3  3.913440E+00 -6.102887E+00 -6.116828E+00  1.331014E-01 -2.063324E+00  2.612803E-01
        42   4 -9.420462E+00  1.538252E+00  1.270834E+00  3.528192E+00 -3.679270E+00 -7.131739E-01
        43   1 -3.408054E-01 -2.001807E+00 -9.192576E+00  1.801136E+00 -1.956587E+00  3.683423E-01
        43   2 -9.288107E+00  3.975922E-03  2.676013E+00  3.158703E+00 -4.186347E+00 -6.289027E-01
        43   3 -2.768266E+00 -1.885145E+00 -4.675029E+00  1.607929E+00 -3.101180E+00  4.463927E-01
        43   4  4.041305E+00 -4.103725E+00 -8.453667E+00  1.410562E+00 -9.624346E-01  3.218582E-01
        44   1 -3.179147E+00  1.009228E+00  4.168034E+00  3.159681E+00 -1.073843E+00 -2.964958E-01
        44   2 -8.301766E-01 -1.353516E+00 -1.359416E+00  2.460704E+00 -1.158267E+00 -4.200480E-01
        44   3  8.919461E+00  4.271231E+00  5.676488E+00  9.464639E-01 -1.029927E+00 -1.873468E-01
        44   4 -4.873999E+00  4.033218E-01 -1.382487E+00  3.236662E+00 -3.139576E+00  4.653645E-02
        45   1 -7.653267E+00  1.152821E+00  1.004279E+00  7.335719E-01 -2.864818E+00  7.225429E-02
        45   2  6.416580E+00 -2.691077E+00 -3.413380E+00  7.421870E-01 -2.718329E+00 -2.192796E-01
        45   3 -3.469253E+00 -2.999584E+00 -6.635740E-01  6.751798E-01 -2.668848E+00 -3.073165E-01
        45   4 -9.015867E+00 -1.423946E+00  7.356507E-01  2.745166E+00 -3.125183E+00 -9.947179E-02
        46   1  4.751296E+00 -6.500689E-01 -1.874419E+00  6.586731E-01 -1.252165E+00  4.834687E-02
        46   2  2.583511E+00  2.660322E+00 -5.033167E-01  6.579481E-01 -3.782288E+00  2.637433E-01
        46   3  8.176281E+00  4.715091E+00  6.174529E+00  5.559374E-01 -1.913663E+00  4.491011E-01
        46   4  2.150847E+00  5.003059E-01 -5.509917E-02  2.364175E+00 -4.296131E+00  2.659549E-01
        47   1 -1.442356E+01  4.774538E+00  6.885767E+00 -6.882501E-01  3.201480E-01 -3.465424E-01
        47   2 -4.855258E-01 -3.766947E+00 -1.245768E+01 -3.772502E+00  4.279049E+00 -3.188293E-01
        47   3 -6.348411E+00 -2.702059E+00 -3.641092E+00 -2.697459E+00  3.638424E+00 -1.012717E-02
        47   4 -1.603669E+00 -9.380365E+00 -4.465933E+00 -2.945043E+00  4.475100E+00 -3.166897E-01
        48   1  1.230492E+01  4.821847E+00  1.297253E+01 -1.988512E+00 -9.767614E-01 -1.617888E+00
        48   2  3.133542E+00 -6.690013E-01 -6.102272E+00 -6.467404E-01 -9.726563E-01  9.071564E-01
        48   3 -3.543786E-01  8.162680E-01 -4.910393E+00 -1.461417E+00  4.296833E-01  1.144438E+00
        48   4  4.578234E+00  3.691877E+00  6.731081E+00 -2.100158E+00  4.378266E+00 -1.396724E+00

 internal state variables (elem, integ.pnt.,values) for set EALL and time  0.2800000E+02

        37   1  1.965661E-03  2.360862E-03  3.347537E-03 -1.013711E-03  1.490563E-03  3.857479E-04  1.170309E-03  1.590292E-03  2.516283E-03 -5.800874E-04  7.395942E-04  2.262741E-04  6.568236E+02  1.223860E+01
        37   2 -1.385533E-04  2.316245E-03  1.354358E-03 -8.217858E-04  6.618474E-03  9.522429E-05 -2.581639E-04  1.611535E-03  1.182626E-03 -3.606643E-04  4.093710E-03  4.682899E-05  6.568236E+02  1.223860E+01
        37   3  4.530733E-03  1.054303E-03  1.229679E-05 -1.776401E-04 -5.134533E-04 -1.178948E-03  4.299389E-03  1.516442E-03  5.763753E-04  1.912733E-05 -8.168462E-04 -1.334394E-03  6.792291E+02  1.845236E+01
        37   4 -9.708268E-04  1.581260E-03  1.643876E-03 -5.154082E-03  8.177466E-03  8.540591E-05 -8.524120E-04  1.185711E-03  1.361283E-03 -2.978097E-03  5.240420E-03  1.632552E-06  6.568236E+02  1.223860E+01
        38   1  1.075606E-04 -1.401873E-04 -1.161217E-03  1.990312E-03 -8.651199E-04  1.020169E-04  6.694194E-05 -1.122416E-04 -5.419597E-04  8.545693E-04 -4.164241E-04 -8.300010E-05  6.137920E+02  5.562265E+00
        38   2  8.047404E-04  1.285989E-04 -3.092683E-04  3.245889E-03 -6.947463E-03  4.560238E-04  3.945100E-04  1.161646E-05 -4.475933E-04  1.755079E-03 -3.774993E-03  4.576142E-04  6.361080E+02  8.372592E+00
        38   3  1.152366E-03 -8.350662E-04 -1.059197E-03  1.769049E-03  1.673494E-04 -1.115565E-04  5.249109E-04 -4.149348E-04 -4.668119E-04  7.424066E-04 -1.097587E-04 -1.297618E-04  6.137920E+02  5.562265E+00
        38   4  2.401322E-03 -3.392918E-04  1.029974E-03  2.822233E-03 -3.294911E-04 -9.552321E-04  1.189507E-03 -2.900053E-04  2.774596E-04  1.393773E-03 -4.047777E-04 -2.728513E-04  6.361080E+02  8.372592E+00
        39   1 -3.835820E-03  3.581288E-03  1.323823E-03 -6.973214E-04  1.147934E-03 -9.688065E-04 -3.002150E-03  2.914133E-03  1.082850E-03 -1.919304E-04 -6.397288E-05 -8.180751E-04  6.637473E+02  1.389427E+01
        39   2 -5.315815E-03  2.864620E-03  1.749533E-03 -6.232287E-03  2.122685E-03 -2.292286E-03 -4.380455E-03  2.466763E-03  1.436716E-03 -3.954301E-03  5.496613E-04 -1.878340E-03  6.637473E+02  1.389427E+01
        39   3 -2.198523E-03 -9.641410E-04  1.850255E-03  6.025507E-04  9.346569E-03 -2.365020E-03 -2.577674E-03 -5.178789E-04  2.435413E-03  1.374580E-03  1.025543E-02 -2.813079E-03  6.861527E+02  2.094864E+01
        39   4  4.125874E-03 -2.028298E-03 -3.621032E-04 -9.194746E-05  7.649735E-03 -2.004837E-03  4.380680E-03 -1.704855E-03  1.686362E-04  2.341193E-04  8.645816E-03 -2.398624E-03  6.861527E+02  2.094864E+01
        40   1  3.332550E-03 -4.125463E-03 -6.407249E-03 -4.860364E-03  7.682266E-03 -1.404417E-04  3.706484E-03 -4.854136E-03 -8.242586E-03 -6.118900E-03  1.000049E-02 -2.827817E-04  6.930764E+02  2.378263E+01
        40   2  1.401132E-03 -4.737436E-03 -4.352810E-03 -6.567391E-03  8.312266E-03  4.720120E-04  1.604521E-03 -5.421037E-03 -5.888547E-03 -8.275311E-03  1.060973E-02  3.463671E-04  6.930764E+02  2.378263E+01
        40   3  2.017393E-03 -3.330960E-03 -7.027710E-03 -6.337472E-03  9.693921E-03  4.734673E-04  2.482636E-03 -4.167265E-03 -8.880419E-03 -7.335802E-03  1.246469E-02  2.859354E-04  6.930764E+02  2.378263E+01
        40   4 -1.683575E-03  2.241867E-03  3.409225E-03 -5.193398E-03  5.026225E-03 -2.245480E-03 -1.254834E-03  2.193222E-03  3.427087E-03 -3.451993E-03  3.556804E-03 -2.095742E-03  6.706709E+02  1.577392E+01
        41   1 -3.877483E-03  1.585839E-03  2.169532E-03 -3.254290E-03  8.662367E-03 -3.423032E-04 -2.736365E-03  1.089631E-03  1.762838E-03 -1.096323E-03  5.854860E-03 -3.335647E-04  6.568236E+02  1.223860E+01
        41   2 -2.677473E-03  1.397088E-03  4.029184E-03 -2.005986E-03  1.098309E-03 -8.831947E-04 -1.665614E-03  9.349884E-04  2.986273E-03 -2.528936E-04  5.116169E-04 -6.512988E-04  6.568236E+02  1.223860E+01
        41   3 -3.299882E-04 -3.963847E-04  2.711570E-03 -9.441684E-03 -2.255274E-05 -1.973145E-03 -2.086065E-04 -1.852953E-04  3.379045E-03 -8.684528E-03 -6.565416E-04 -2.050705E-03  6.792291E+02  1.845236E+01
        41   4  3.028368E-03  1.807382E-03  3.783000E-03  1.454343E-03  1.234478E-03 -6.961384E-04  2.022307E-03  1.173860E-03  2.853737E-03  1.561631E-03  7.660101E-04 -4.979286E-04  6.568236E+02  1.223860E+01
        42   1 -4.653242E-04 -6.000997E-04 -2.858403E-04  2.561801E-03 -2.076447E-03  5.215783E-04 -1.947038E-04 -1.858265E-04 -1.086918E-04  9.384154E-04 -7.989725E-04  2.406721E-04  6.068960E+02  4.901937E+00
        42   2  1.381531E-04 -1.250592E-03 -2.356789E-04  9.454669E-04 -1.847822E-03  3.130581E-04  5.427423E-05 -3.924663E-04 -5.789827E-05  2.231813E-04 -6.231866E-04  1.469949E-04  6.068960E+02  4.901937E+00
        42   3  1.304704E-03 -1.169578E-03 -1.373769E-03 -1.225724E-04 -2.126163E-03  2.627932E-04  5.001494E-04 -3.558679E-04 -5.469395E-04 -2.302896E-04 -8.121275E-04  9.618057E-05  6.068960E+02  4.901937E+00
        42   4 -3.054277E-03  6.849628E-04  6.843584E-04  5.244422E-03 -5.545061E-03 -8.939120E-04 -1.439767E-03  1.048278E-04  2.156067E-04  2.747367E-03 -3.029293E-03 -2.784223E-04  6.292120E+02  7.378634E+00
        43   1  3.977673E-04  5.689250E-07 -2.089871E-03  1.634620E-03 -1.909738E-03  4.447879E-04  2.131954E-04  8.473296E-05 -8.267911E-04  4.675007E-04 -6.473661E-04  2.139260E-04  6.068960E+02  4.901937E+00
        43   2 -2.996907E-03  1.819990E-04  1.139876E-03  4.569300E-03 -6.404306E-03 -7.727669E-04 -1.395637E-03 -7.148293E-05  3.580674E-04  2.252319E-03 -3.597183E-03 -2.148320E-04  6.292120E+02  7.378634E+00
        43   3 -4.039092E-04 -1.245715E-04 -9.460883E-04  1.487207E-03 -3.328345E-03  5.109918E-04 -1.571248E-04 -1.649572E-05 -3.769641E-04  4.440880E-04 -1.356684E-03  2.267163E-04  6.068960E+02  4.901937E+00
        43   4  1.366099E-03 -6.875236E-04 -1.972532E-03  1.331908E-03 -8.489859E-04  3.202364E-04  5.377148E-04 -2.042168E-04 -7.667941E-04  4.164804E-04 -2.287415E-04  1.129536E-04  6.068960E+02  4.901937E+00
        44   1 -1.269479E-03  2.013978E-04  1.532178E-03  5.364122E-03 -1.888591E-03 -4.753936E-04 -3.994623E-04 -8.162515E-05  6.497272E-04  3.264593E-03 -1.251880E-03 -2.493940E-04  6.430040E+02  9.500444E+00
        44   2 -5.198746E-05 -2.827782E-04 -5.037235E-04  2.906194E-03 -1.674747E-03 -4.626170E-04  4.254372E-05 -1.259340E-04 -4.254555E-04  1.040238E-03 -9.220604E-04 -1.276796E-04  6.206880E+02  6.311545E+00
        44   3  2.668024E-03  6.258855E-04  1.275787E-03  1.786180E-03 -1.728562E-03 -2.772808E-04  1.484713E-03  1.356892E-04  5.269469E-04  1.386577E-03 -1.022966E-03 -1.107296E-04  6.430040E+02  9.500444E+00
        44   4 -1.552786E-03  4.008351E-04 -4.008432E-04  5.527971E-03 -5.285372E-03  8.371688E-05 -5.668331E-04  5.789466E-05 -4.573308E-04  3.387422E-03 -3.115064E-03  3.881936E-05  6.430040E+02  9.500444E+00
        45   1 -2.729440E-03  5.140683E-04  6.642385E-04  1.184107E-03 -4.821336E-03  1.602176E-04 -1.491246E-03 -4.278056E-05  3.297289E-04  6.872192E-04 -3.108839E-03  1.577924E-04  6.361080E+02  8.372592E+00
        45   2  1.883297E-03 -7.842025E-04 -1.163141E-03  9.801243E-04 -3.195629E-03 -1.748595E-04  7.977538E-04 -3.192198E-04 -5.925717E-04  5.000178E-04 -1.356710E-03 -7.571496E-06  6.137920E+02  5.562265E+00
        45   3 -7.347572E-04 -6.003912E-04 -1.550493E-05  8.896933E-04 -3.106913E-03 -3.112503E-04 -3.025781E-04 -2.480073E-04 -8.031541E-05  4.508811E-04 -1.294544E-03 -9.066270E-05  6.137920E+02  5.562265E+00
        45   4 -3.043904E-03 -2.518173E-04  7.920487E-04  4.192888E-03 -5.221013E-03 -8.604832E-05 -1.649665E-03 -4.119019E-04  4.274498E-04  2.064285E-03 -3.311556E-03  5.217736E-05  6.361080E+02  8.372592E+00
        46   1  1.357913E-03 -4.612335E-04 -8.122568E-04  9.354261E-04 -1.822681E-03  1.321695E-04  5.185829E-04 -3.630301E-04 -4.643382E-04  4.985677E-04 -1.016094E-03  1.280783E-04  6.206880E+02  6.311545E+00
        46   2  8.504849E-04  7.091725E-04 -5.628678E-04  1.126109E-03 -6.433972E-03  4.660034E-04  5.224037E-04  1.521995E-04 -4.805703E-04  6.903827E-04 -3.936567E-03  3.226607E-04  6.430040E+02  9.500444E+00
        46   3  2.414514E-03  7.507062E-04  1.511476E-03  9.162971E-04 -3.309328E-03  7.670982E-04  1.447657E-03  1.338804E-04  7.261290E-04  4.923741E-04 -2.122293E-03  4.853883E-04  6.430040E+02  9.500444E+00
        46   4  8.342820E-04 -5.041776E-05 -2.617604E-04  3.883638E-03 -7.301491E-03  4.515505E-04  6.149220E-04 -2.346677E-04 -3.177900E-04  2.062562E-03 -4.467388E-03  2.820750E-04  6.430040E+02  9.500444E+00
        47   1 -7.290126E-03  2.708389E-03  3.953181E-03 -1.111838E-03  3.997514E-04 -6.970071E-04 -5.989162E-03  2.434189E-03  3.752120E-03  2.495618E-04 -6.004109E-04 -3.607861E-04  6.706709E+02  1.577392E+01
        47   2  1.000278E-03 -8.883973E-04 -6.147345E-03 -8.689891E-03  9.932478E-03 -7.716982E-04  1.343627E-03 -1.029762E-03 -7.851102E-03 -1.029655E-02  1.265204E-02 -1.261825E-03  6.930764E+02  2.378263E+01
        47   3 -2.709618E-03 -5.912353E-04 -1.206619E-03 -6.199489E-03  8.421960E-03 -1.980436E-05 -3.356247E-03 -6.260728E-04 -1.593610E-03 -7.271170E-03  1.083336E-02 -1.736138E-06  6.930764E+02  2.378263E+01
        47   4  2.166418E-04 -4.238754E-03 -1.491899E-03 -6.800291E-03  1.035247E-02 -7.835751E-04 -5.036453E-05 -4.911547E-03 -1.994596E-03 -8.081966E-03  1.312970E-02 -1.407294E-03  6.930764E+02  2.378263E+01
        48   1  4.114861E-03  4.552020E-04  4.753110E-03 -3.795809E-03 -1.961292E-03 -3.193669E-03  3.075999E-03  4.536593E-04  4.089381E-03 -2.551647E-03 -1.593021E-03 -2.420831E-03  6.637473E+02  1.389427E+01
        48   2  2.007561E-03  1.355853E-05 -3.135146E-03 -1.413387E-03 -2.244504E-03  2.039285E-03  1.930044E-03  6.309598E-04 -3.081856E-03 -1.342727E-03 -2.712557E-03  2.376203E-03  6.861527E+02  2.094864E+01
        48   3  1.457137E-04  8.653930E-04 -2.385777E-03 -3.168459E-03  8.955808E-04  2.529386E-03  3.163976E-04  1.292632E-03 -2.235904E-03 -2.657526E-03  6.875129E-04  2.786263E-03  6.861527E+02  2.094864E+01
        48   4  1.268880E-03  8.767540E-04  2.556970E-03 -3.877974E-03  8.489376E-03 -2.835797E-03  9.513625E-04  6.751659E-04  2.363568E-03 -2.140047E-03  6.070519E-03 -2.517045E-03  6.637473E+02  1.389427E+01

 volume (element, volume) for set EALL and time  0.2800000E+02

        37  2.087500E+07
        38  2.079167E+07
        39  2.087500E+07
        40  2.087500E+07
        41  2.087500E+07
        42  2.079167E+07
        43  2.079167E+07
        44  2.079167E+07
        45  2.079167E+07
        46  2.079167E+07
        47  2.087500E+07
        48  2.087500E+07

 displacements (vx,vy,vz) for set NALL and time  0.2900000E+02

         1 -3.445790E+00 -5.406932E+00  4.906836E+00
         2 -3.850654E+00 -4.695001E+00  0.000000E+00
         3 -1.794303E+00  0.000000E+00  4.195305E+00
         4  0.000000E+00  0.000000E+00  0.000000E+00
         5  3.007849E+01  1.526587E+00 -1.888963E+01
         6  2.087252E+01  2.190785E-01  0.000000E+00
         7  2.598197E+01  0.000000E+00 -1.750052E+01
         8  1.288631E+01  0.000000E+00  0.000000E+00
         9  6.751810E+00 -1.418848E+01  0.000000E+00
        10  7.006198E+00  0.000000E+00  0.000000E+00
        11  8.979498E+00 -1.435737E+01  1.147174E+01
        12  9.866541E+00  0.000000E+00  1.104887E+01
        13  1.493413E+01 -1.544992E-01  0.000000E+00
        14  1.554433E+01 -1.111474E+01  0.000000E+00
        15 -1.689495E-01 -9.734894E+00  0.000000E+00
        16 -7.559086E-01 -2.526704E+00  0.000000E+00
        17  1.197659E+01  0.000000E+00  0.000000E+00
        18  2.478281E+00  0.000000E+00  0.000000E+00
        19  2.422610E+01 -5.955564E-01 -1.866216E+01
        20  2.531805E+01 -9.585938E+00  9.434422E-01
        21  8.012404E-01 -9.343007E+00  7.583118E+00
        22 -2.040857E+00 -2.871371E+00  4.518132E+00
        23  2.081557E+01  0.000000E+00  2.007304E+00
        24  2.168421E+00  0.000000E+00  7.789776E+00
        25 -3.339890E+00 -5.064925E+00  2.749899E+00
        26  1.898364E+01  1.308541E+00 -7.577920E+00
        27  1.394824E-01  0.000000E+00  2.393922E+00
        28  1.500199E+01  0.000000E+00 -8.002864E+00
        29  1.283576E+01 -5.113076E+00  0.000000E+00
        30  7.177904E+00 -6.984207E+00  0.000000E+00
        31  2.260276E+00 -4.977429E+00  0.000000E+00
        32  2.161892E+01 -4.548273E+00  1.130217E+00
        33  1.893234E+00 -4.810792E+00  7.762944E+00
        34  9.752767E+00 -6.982656E+00  1.127499E+01
        35  1.707816E+01 -1.019340E+01  3.617759E-01
        36  4.888287E-01 -9.630157E+00  4.067525E+00
        37  7.559771E+00 -1.406254E+01  5.226940E+00
        38  1.425857E+01  0.000000E+00  1.513575E+00
        39  2.755796E+00  0.000000E+00  3.967042E+00
        40  8.116211E+00  0.000000E+00  4.977057E+00
        41 -7.995971E-01 -2.829503E+00  2.688873E+00
        42  1.460082E+01 -5.680742E-01 -7.573881E+00
        43  7.875662E+00 -6.967402E+00  5.360321E+00
        44  1.448705E+01 -5.294976E+00  8.836697E-01
        45  2.528476E+00 -4.905277E+00  4.012479E+00

 stresses (elem, integ.pnt.,sxx,syy,szz,sxy,sxz,syz) for set EALL and time  0.2900000E+02

        37   1  8.288560E+00  9.145247E+00  1.088937E+01 -6.123178E-01  9.408564E-01  2.314677E-01
        37   2  1.491772E+00  6.948335E+00  4.437673E+00 -5.223707E-01  3.930138E+00  5.965488E-02
        37   3  1.113205E+01  3.947510E+00  1.802899E+00 -1.141615E-01 -1.972812E-01 -5.596214E-01
        37   4 -9.773484E-01  4.583091E+00  4.495770E+00 -3.091164E+00  4.805829E+00  6.345062E-02
        38   1 -5.337325E-01 -1.110080E+00 -4.728886E+00  1.795780E+00 -7.350176E-01  2.530258E-01
        38   2  2.810713E+00  9.989929E-01  2.858353E-01  2.203271E+00 -4.722514E+00  2.011702E-01
        38   3  3.476013E+00 -3.278900E+00 -4.225367E+00  1.607343E+00  3.593716E-01  3.095255E-03
        38   4  8.752431E+00  1.322118E+00  5.304083E+00  1.987845E+00 -1.104358E-01 -7.854218E-01
        39   1 -7.762040E+00  8.020604E+00  3.187220E+00 -4.451548E-01  8.318027E-01 -5.019845E-01
        39   2 -1.156771E+01  5.590201E+00  3.153599E+00 -3.533747E+00  1.356565E+00 -1.209866E+00
        39   3 -4.708300E+00 -2.756308E+00  2.617959E+00  2.212711E-01  4.457624E+00 -1.070745E+00
        39   4  8.461858E+00 -3.518121E+00 -3.931609E-01 -7.649348E-02  3.642404E+00 -9.215715E-01
        40   1  3.375754E+00 -1.033636E+01 -1.403152E+01 -2.197887E+00  3.484574E+00 -5.339699E-02
        40   2 -4.358784E-01 -1.169439E+01 -1.051897E+01 -2.960604E+00  3.784779E+00  2.346835E-01
        40   3  4.753168E-01 -9.271614E+00 -1.560299E+01 -2.909931E+00  4.383442E+00  2.372465E-01
        40   4 -1.805735E+00  5.947322E+00  8.000281E+00 -2.834119E+00  2.728642E+00 -1.128998E+00
        41   1 -8.770715E+00  3.521479E+00  4.506460E+00 -2.125577E+00  5.020813E+00 -1.688765E-01
        41   2 -4.950033E+00  4.488948E+00  1.002877E+01 -1.443101E+00  7.059018E-01 -4.854999E-01
        41   3  2.854147E-02 -2.088828E-01  5.414795E+00 -4.711700E+00  7.297236E-02 -9.179404E-01
        41   4  1.107123E+01  8.360765E+00  1.225557E+01  6.771229E-01  7.361472E-01 -3.868379E-01
        42   1 -3.059585E+00 -3.995804E+00 -2.373631E+00  2.719384E+00 -2.164715E+00  4.731293E-01
        42   2 -8.260930E-01 -7.070038E+00 -2.478850E+00  1.198604E+00 -2.067372E+00  2.862231E-01
        42   3  4.207027E+00 -6.609916E+00 -6.587643E+00  1.613382E-01 -2.224638E+00  2.821340E-01
        42   4 -1.008740E+01  1.721844E+00  1.411693E+00  3.763141E+00 -3.923736E+00 -7.762743E-01
        43   1 -4.031548E-01 -2.201759E+00 -9.903421E+00  1.956835E+00 -2.114718E+00  3.916056E-01
        43   2 -9.947469E+00  6.146461E-02  2.939857E+00  3.380767E+00 -4.454529E+00 -6.851903E-01
        43   3 -2.978662E+00 -2.043857E+00 -5.033565E+00  1.743304E+00 -3.330966E+00  4.758257E-01
        43   4  4.341091E+00 -4.444602E+00 -9.110234E+00  1.526986E+00 -1.049161E+00  3.471660E-01
        44   1 -3.458185E+00  1.126776E+00  4.536592E+00  3.373315E+00 -1.138308E+00 -3.201771E-01
        44   2 -9.010740E-01 -1.446779E+00 -1.386246E+00  2.661878E+00 -1.228754E+00 -4.570055E-01
        44   3  9.579639E+00  4.641871E+00  6.156546E+00  9.908501E-01 -1.102117E+00 -2.053355E-01
        44   4 -5.264442E+00  4.673430E-01 -1.424253E+00  3.448325E+00 -3.351293E+00  4.722214E-02
        45   1 -8.181226E+00  1.331507E+00  1.102123E+00  7.809811E-01 -3.036954E+00  7.344617E-02
        45   2  6.901051E+00 -2.889000E+00 -3.628250E+00  7.891700E-01 -2.921692E+00 -2.420670E-01
        45   3 -3.732722E+00 -3.219754E+00 -6.845608E-01  7.173719E-01 -2.871434E+00 -3.338668E-01
        45   4 -9.641748E+00 -1.441845E+00  8.035612E-01  2.940308E+00 -3.315942E+00 -1.131896E-01
        46   1  5.146738E+00 -6.245151E-01 -1.962574E+00  6.999363E-01 -1.327423E+00  4.692577E-02
        46   2  2.766404E+00  2.923223E+00 -4.887585E-01  7.000392E-01 -4.035503E+00  2.804891E-01
        46   3  8.748203E+00  5.138098E+00  6.674973E+00  5.945440E-01 -2.036510E+00  4.801466E-01
        46   4  2.286224E+00  5.963722E-01 -8.053117E-03  2.527984E+00 -4.585198E+00  2.845576E-01
        47   1 -1.536780E+01  5.013458E+00  7.238599E+00 -7.805104E-01  3.834939E-01 -3.656174E-01
        47   2 -4.945487E-01 -3.979230E+00 -1.314804E+01 -3.987061E+00  4.509490E+00 -3.305375E-01
        47   3 -6.710630E+00 -2.859961E+00 -3.846390E+00 -2.854462E+00  3.842920E+00 -1.134331E-02
        47   4 -1.667077E+00 -9.914774E+00 -4.710637E+00 -3.108249E+00  4.725946E+00 -3.246060E-01
        48   1  1.311897E+01  5.111121E+00  1.378053E+01 -2.142965E+00 -1.037512E+00 -1.725608E+00
        48   2  3.301599E+00 -8.339084E-01 -6.613531E+00 -6.934888E-01 -1.017426E+00  9.628241E-01
        48   3 -4.135443E-01  7.713724E-01 -5.351326E+00 -1.566994E+00  4.700883E-01  1.224581E+00
        48   4  4.887377E+00  3.893013E+00  7.119181E+00 -2.278913E+00  4.697851E+00 -1.484434E+00

 internal state variables (elem, integ.pnt.,values) for set EALL and time  0.2900000E+02

        37   1  2.156730E-03  2.582745E-03  3.638003E-03 -1.121865E-03  1.666913E-03  4.262261E-04  1.374653E-03  1.832898E-03  2.851317E-03 -6.890395E-04  9.062267E-04  2.674822E-04  6.568236E+02  1.269188E+01
        37   2 -1.385797E-04  2.527691E-03  1.454869E-03 -9.209696E-04  7.293995E-03  1.063235E-04 -2.675780E-04  1.847238E-03  1.311862E-03 -4.532597E-04  4.793690E-03  5.741233E-05  6.568236E+02  1.269188E+01
        37   3  4.894140E-03  1.087827E-03 -4.393027E-05 -2.079978E-04 -5.208698E-04 -1.259390E-03  4.904206E-03  1.637357E-03  5.557936E-04 -1.084347E-05 -8.722721E-04 -1.486290E-03  6.792291E+02  1.913578E+01
        37   4 -1.042427E-03  1.717092E-03  1.773668E-03 -5.694457E-03  8.990175E-03  9.978521E-05 -9.448848E-04  1.343460E-03  1.521040E-03 -3.528516E-03  6.097141E-03  1.276703E-05  6.568236E+02  1.269188E+01
        38   1  1.163665E-04 -1.435125E-04 -1.291481E-03  2.229469E-03 -9.588206E-04  1.498495E-04  7.336568E-05 -1.177389E-04 -6.237230E-04  1.000314E-03 -4.761582E-04 -6.298333E-05  6.137920E+02  5.768275E+00
        38   2  8.943177E-04  1.509996E-04 -2.929792E-04  3.575992E-03 -7.655506E-03  4.675779E-04  4.641680E-04  2.566274E-05 -4.560821E-04  2.024793E-03 -4.352826E-03  4.829543E-04  6.361080E+02  8.682688E+00
        38   3  1.283657E-03 -9.206507E-04 -1.185912E-03  1.984264E-03  2.338312E-04 -1.020266E-04  6.067632E-04 -4.708793E-04 -5.441766E-04  8.728811E-04 -8.114928E-05 -1.298421E-04  6.137920E+02  5.768275E+00
        38   4  2.663868E-03 -3.564870E-04  1.185621E-03  3.132247E-03 -3.265385E-04 -1.095975E-03  1.395652E-03 -3.119585E-04  3.813926E-04  1.636574E-03 -4.190130E-04 -3.679411E-04  6.361080E+02  8.682688E+00
        39   1 -4.165214E-03  3.874586E-03  1.434505E-03 -7.915611E-04  1.350813E-03 -1.042993E-03 -3.421511E-03  3.300316E-03  1.226453E-03 -2.810783E-04  1.007233E-04 -9.206071E-04  6.637473E+02  1.440887E+01
        39   2 -5.749684E-03  3.086842E-03  1.882126E-03 -6.856595E-03  2.410710E-03 -2.478141E-03 -4.953121E-03  2.771012E-03  1.621358E-03 -4.669152E-03  8.214660E-04 -2.124820E-03  6.637473E+02  1.440887E+01
        39   3 -2.350914E-03 -1.087651E-03  1.957639E-03  6.039471E-04  1.006019E-02 -2.508736E-03 -2.893348E-03 -6.787233E-04  2.692831E-03  1.445137E-03  1.162345E-02 -3.144667E-03  6.861527E+02  2.172452E+01
        39   4  4.445572E-03 -2.225553E-03 -4.406792E-04 -1.210305E-04  8.228855E-03 -2.135305E-03  4.986421E-03 -2.018489E-03  9.550174E-05  2.119388E-04  9.763525E-03 -2.683129E-03  6.861527E+02  2.172452E+01
        40   1  3.580826E-03 -4.416800E-03 -6.842534E-03 -5.179486E-03  8.193441E-03 -1.422353E-04  4.246148E-03 -5.515746E-03 -9.263201E-03 -6.888646E-03  1.121988E-02 -3.020289E-04  6.930764E+02  2.466346E+01
        40   2  1.499087E-03 -5.078765E-03 -4.632896E-03 -6.992137E-03  8.876213E-03  5.187186E-04  1.828824E-03 -6.183523E-03 -6.575607E-03 -9.312799E-03  1.193349E-02  4.274571E-04  6.930764E+02  2.466346E+01
        40   3  2.163878E-03 -3.554568E-03 -7.512487E-03 -6.786626E-03  1.032987E-02  5.218675E-04  2.807791E-03 -4.696773E-03 -1.000283E-02 -8.352806E-03  1.399972E-02  3.679002E-04  6.930764E+02  2.466346E+01
        40   4 -1.819075E-03  2.391344E-03  3.638675E-03 -5.708469E-03  5.516217E-03 -2.415929E-03 -1.453741E-03  2.446295E-03  3.812753E-03 -4.102563E-03  4.183195E-03 -2.357122E-03  6.706709E+02  1.635814E+01
        41   1 -4.220475E-03  1.731290E-03  2.344179E-03 -3.673375E-03  9.492047E-03 -3.621978E-04 -3.126867E-03  1.251261E-03  1.974924E-03 -1.472771E-03  6.750793E-03 -3.641834E-04  6.568236E+02  1.269188E+01
        41   2 -2.940179E-03  1.528634E-03  4.383890E-03 -2.322124E-03  1.233762E-03 -9.566305E-04 -1.944863E-03  1.078646E-03  3.391420E-03 -5.063992E-04  6.364444E-04 -7.385049E-04  6.568236E+02  1.269188E+01
        41   3 -3.604137E-04 -4.479433E-04  2.856763E-03 -1.022667E-02  2.690226E-05 -2.097975E-03 -2.541945E-04 -2.458867E-04  3.712935E-03 -9.955670E-03 -6.396400E-04 -2.301117E-03  6.792291E+02  1.913578E+01
        41   4  3.308211E-03  1.981730E-03  4.110168E-03  1.521067E-03  1.361756E-03 -7.558612E-04  2.331735E-03  1.361253E-03  3.231952E-03  1.685112E-03  8.970457E-04 -5.673479E-04  6.568236E+02  1.269188E+01
        42   1 -5.224073E-04 -6.939628E-04 -3.249197E-04  2.916466E-03 -2.355722E-03  5.779506E-04 -2.273818E-04 -2.350729E-04 -1.301737E-04  1.132495E-03 -9.534069E-04  2.746300E-04  6.068960E+02  5.083490E+00
        42   2  1.550131E-04 -1.444330E-03 -2.775653E-04  1.114807E-03 -2.124053E-03  3.472379E-04  6.394543E-05 -4.944382E-04 -7.900135E-05  3.082981E-04 -7.703377E-04  1.674978E-04  6.068960E+02  5.083490E+00
        42   3  1.479446E-03 -1.354464E-03 -1.551990E-03 -8.201495E-05 -2.413742E-03  2.997539E-04  5.969274E-04 -4.525316E-04 -6.468159E-04 -2.193923E-04 -9.708271E-04  1.162926E-04  6.068960E+02  5.083490E+00
        42   4 -3.398326E-03  8.027327E-04  7.825542E-04  5.780007E-03 -6.094793E-03 -1.023613E-03 -1.687827E-03  1.749863E-04  2.787384E-04  3.153567E-03 -3.452857E-03 -3.613995E-04  6.292120E+02  7.651917E+00
        43   1  4.320923E-04 -2.588671E-05 -2.362568E-03  1.904379E-03 -2.191233E-03  4.904882E-04  2.360521E-04  7.546644E-05 -9.792826E-04  6.065851E-04 -7.980471E-04  2.420521E-04  6.068960E+02  5.083490E+00
        43   2 -3.337354E-03  2.320137E-04  1.303296E-03  5.065023E-03 -7.017377E-03 -8.890176E-04 -1.640060E-03 -4.614397E-05  4.631715E-04  2.616632E-03 -4.078566E-03 -2.880402E-04  6.292120E+02  7.651917E+00
        43   3 -4.568546E-04 -1.510505E-04 -1.069033E-03  1.725483E-03 -3.748957E-03  5.686797E-04 -1.866815E-04 -2.917253E-05 -4.458200E-04  5.681188E-04 -1.594741E-03  2.608480E-04  6.068960E+02  5.083490E+00
        43   4  1.544978E-03 -7.975871E-04 -2.234585E-03  1.538579E-03 -9.953999E-04  3.659964E-04  6.376135E-04 -2.615238E-04 -9.123613E-04  5.252005E-04 -3.031916E-04  1.377146E-04  6.068960E+02  5.083490E+00
        44   1 -1.442721E-03  2.492282E-04  1.724281E-03  5.875614E-03 -2.051320E-03 -5.281594E-04 -5.293419E-04 -5.362238E-05  8.003059E-04  3.733205E-03 -1.410557E-03 -2.936279E-04  6.430040E+02  9.852312E+00
        44   2 -7.287614E-05 -3.169215E-04 -5.168059E-04  3.307536E-03 -1.830140E-03 -5.347816E-04  3.331349E-05 -1.479449E-04 -4.477289E-04  1.284346E-03 -1.035810E-03 -1.694741E-04  6.206880E+02  6.545305E+00
        44   3  2.941493E-03  7.208417E-04  1.437416E-03  1.909532E-03 -1.898678E-03 -3.145670E-04  1.724723E-03  2.031931E-04  6.529362E-04  1.525540E-03 -1.175898E-03 -1.388967E-04  6.430040E+02  9.852312E+00
        44   4 -1.751100E-03  4.642953E-04 -4.070917E-04  6.045703E-03 -5.799964E-03  9.008184E-05 -7.207557E-04  1.020887E-04 -4.807229E-04  3.866936E-03 -3.580655E-03  4.554467E-05  6.430040E+02  9.852312E+00
        45   1 -3.010312E-03  6.213344E-04  7.381181E-04  1.297176E-03 -5.235241E-03  1.651300E-04 -1.719233E-03  1.975663E-05  3.872042E-04  7.829610E-04 -3.481917E-03  1.670027E-04  6.361080E+02  8.682688E+00
        45   2  2.114474E-03 -8.842558E-04 -1.279579E-03  1.076743E-03 -3.587707E-03 -2.145004E-04  9.373822E-04 -3.786981E-04 -6.695182E-04  5.643288E-04 -1.593569E-03 -2.694625E-05  6.137920E+02  5.768275E+00
        45   3 -8.279442E-04 -6.759755E-04  2.151056E-06  9.776938E-04 -3.494875E-03 -3.603757E-04 -3.581094E-04 -2.931856E-04 -7.456676E-05  5.093628E-04 -1.527214E-03 -1.175899E-04  6.137920E+02  5.768275E+00
        45   4 -3.358225E-03 -2.310278E-04  8.740630E-04  4.649815E-03 -5.678017E-03 -1.122573E-04 -1.904312E-03 -4.161007E-04  4.937921E-04  2.423689E-03 -3.718729E-03  3.873407E-05  6.361080E+02  8.682688E+00
        46   1  1.536921E-03 -4.792462E-04 -8.855933E-04  1.025624E-03 -1.989343E-03  1.319261E-04  6.296198E-04 -3.855652E-04 -5.187871E-04  5.633099E-04 -1.139019E-03  1.326184E-04  6.206880E+02  6.545305E+00
        46   2  9.280251E-04  8.187531E-04 -5.957718E-04  1.230823E-03 -7.043891E-03  5.058391E-04  5.954091E-04  2.294092E-04 -5.221915E-04  7.877912E-04 -4.497338E-03  3.616985E-04  6.430040E+02  9.852312E+00
        46   3  2.644138E-03  8.714537E-04  1.688014E-03  1.010479E-03 -3.609050E-03  8.392567E-04  1.658369E-03  2.173387E-04  8.699575E-04  5.748982E-04 -2.405639E-03  5.520433E-04  6.430040E+02  9.852312E+00
        46   4  8.976853E-04 -2.413863E-05 -2.623462E-04  4.285968E-03 -7.995509E-03  4.947195E-04  6.819334E-04 -2.277690E-04 -3.317949E-04  2.413477E-03 -5.104446E-03  3.215633E-04  6.430040E+02  9.852312E+00
        47   1 -7.896430E-03  2.910216E-03  4.240151E-03 -1.315664E-03  5.279139E-04 -7.595787E-04 -6.857918E-03  2.748020E-03  4.207288E-03  7.463846E-05 -5.166100E-04 -4.456014E-04  6.706709E+02  1.635814E+01
        47   2  1.074292E-03 -9.525078E-04 -6.566311E-03 -9.302850E-03  1.059720E-02 -8.084452E-04  1.505405E-03 -1.172790E-03 -8.830856E-03 -1.168989E-02  1.423013E-02 -1.378428E-03  6.930764E+02  2.466346E+01
        47   3 -2.898758E-03 -6.357303E-04 -1.288265E-03 -6.643970E-03  8.998664E-03 -2.288750E-05 -3.789904E-03 -7.219964E-04 -1.785682E-03 -8.268090E-03  1.217674E-02 -5.591442E-06  6.930764E+02  2.466346E+01
        47   4  2.466577E-04 -4.541627E-03 -1.591413E-03 -7.271516E-03  1.106351E-02 -8.128425E-04 -9.687217E-06 -5.592752E-03 -2.231500E-03 -9.168914E-03  1.478186E-02 -1.522447E-03  6.930764E+02  2.466346E+01
        48   1  4.477465E-03  4.833262E-04  5.130184E-03 -4.170792E-03 -2.121419E-03 -3.472154E-03  3.529342E-03  4.993048E-04  4.597343E-03 -2.985056E-03 -1.804327E-03 -2.771578E-03  6.637473E+02  1.440887E+01
        48   2  2.170032E-03 -3.472912E-05 -3.419151E-03 -1.534217E-03 -2.381079E-03  2.188118E-03  2.227517E-03  6.134446E-04 -3.558381E-03 -1.554705E-03 -3.027320E-03  2.671970E-03  6.861527E+02  2.172452E+01
        48   3  1.531752E-04  8.977886E-04 -2.615999E-03 -3.448913E-03  9.923657E-04  2.733843E-03  3.362766E-04  1.405982E-03 -2.604104E-03 -3.136517E-03  8.298262E-04  3.160961E-03  6.861527E+02  2.172452E+01
        48   4  1.385808E-03  9.423728E-04  2.743903E-03 -4.305227E-03  9.282253E-03 -3.058599E-03  1.093079E-03  7.673850E-04  2.630849E-03 -2.599430E-03  7.022642E-03 -2.819291E-03  6.637473E+02  1.440887E+01

 volume (element, volume) for set EALL and time  0.2900000E+02

        37  2.087500E+07
        38  2.079167E+07
        39  2.087500E+07
        40  2.087500E+07
        41  2.087500E+07
        42  2.079167E+07
        43  2.079167E+07
        44  2.079167E+07
        45  2.079167E+07
        46  2.079167E+07
        47  2.087500E+07
        48  2.087500E+07

 displacements (vx,vy,vz) for set NALL and time  0.3000000E+02

         1 -2.574056E+00 -5.936152E+00  5.506612E+00
         2 -3.653273E+00 -5.140887E+00  0.000000E+00
         3 -1.395279E+00  0.000000E+00  4.712459E+00
         4  0.000000E+00  0.000000E+00  0.000000E+00
         5  3.183260E+01  4.420525E+00 -2.326451E+01
         6  2.104871E+01  3.008526E+00  0.000000E+00
         7  2.662046E+01  0.000000E+00 -2.177035E+01
         8  1.152509E+01  0.000000E+00  0.000000E+00
         9  7.507538E+00 -1.440657E+01  0.000000E+00
        10  7.114508E+00  0.000000E+00  0.000000E+00
        11  1.059355E+01 -1.460285E+01  1.154534E+01
        12  1.090381E+01  0.000000E+00  1.108728E+01
        13  1.397002E+01  1.205259E+00  0.000000E+00
        14  1.640545E+01 -1.023254E+01  0.000000E+00
        15  2.825244E-01 -1.014347E+01  0.000000E+00
        16 -6.793239E-01 -2.770110E+00  0.000000E+00
        17  1.176640E+01  0.000000E+00  0.000000E+00
        18  2.570513E+00  0.000000E+00  0.000000E+00
        19  2.485145E+01  7.047173E-01 -2.301932E+01
        20  2.777514E+01 -8.570239E+00 -7.622883E-01
        21  1.956813E+00 -9.692338E+00  7.879575E+00
        22 -1.491689E+00 -3.160043E+00  5.073368E+00
        23  2.215888E+01  0.000000E+00  3.934236E-01
        24  2.832351E+00  0.000000E+00  8.126798E+00
        25 -2.912034E+00 -5.552319E+00  3.086243E+00
        26  1.913014E+01  4.185277E+00 -9.574201E+00
        27  3.072942E-01  0.000000E+00  2.685950E+00
        28  1.402494E+01  0.000000E+00 -1.005388E+01
        29  1.288288E+01 -4.635433E+00  0.000000E+00
        30  7.463297E+00 -7.079990E+00  0.000000E+00
        31  2.490001E+00 -5.188972E+00  0.000000E+00
        32  2.319044E+01 -4.019630E+00 -5.582000E-01
        33  2.690298E+00 -5.000802E+00  8.092017E+00
        34  1.094121E+01 -7.081999E+00  1.133323E+01
        35  1.822752E+01 -9.235731E+00 -4.989107E-01
        36  1.157477E+00 -1.002143E+01  4.244091E+00
        37  8.547104E+00 -1.426915E+01  5.207351E+00
        38  1.443753E+01  0.000000E+00  7.621346E-01
        39  3.027366E+00  0.000000E+00  4.144441E+00
        40  8.491266E+00  0.000000E+00  4.936586E+00
        41 -5.612510E-01 -3.113881E+00  3.019964E+00
        42  1.377039E+01  7.396543E-01 -9.573471E+00
        43  8.394617E+00 -7.060948E+00  5.357968E+00
        44  1.485647E+01 -4.839092E+00  7.423271E-02
        45  2.937706E+00 -5.107449E+00  4.186924E+00

 stresses (elem, integ.pnt.,sxx,syy,szz,sxy,sxz,syz) for set EALL and time  0.3000000E+02

        37   1  8.815721E+00  9.742677E+00  1.157579E+01 -6.585882E-01  1.022526E+00  2.487805E-01
        37   2  1.593936E+00  7.390702E+00  4.690258E+00 -5.661201E-01  4.220901E+00  6.458356E-02
        37   3  1.175355E+01  4.034112E+00  1.747727E+00 -1.279802E-01 -1.905378E-01 -5.875104E-01
        37   4 -1.022670E+00  4.863914E+00  4.758297E+00 -3.320205E+00  5.151615E+00  7.011773E-02
        38   1 -5.660618E-01 -1.163315E+00 -5.036908E+00  1.916840E+00 -7.826894E-01  2.833593E-01
        38   2  3.026284E+00  1.097490E+00  3.982019E-01  2.341517E+00 -5.024336E+00  2.017624E-01
        38   3  3.705872E+00 -3.478861E+00 -4.515140E+00  1.714736E+00  3.974619E-01  1.177004E-02
        38   4  9.366739E+00  1.461843E+00  5.759817E+00  2.122145E+00 -1.052347E-01 -8.534836E-01
        39   1 -8.248705E+00  8.482835E+00  3.378672E+00 -4.871725E-01  9.312274E-01 -5.271064E-01
        39   2 -1.225461E+01  5.884280E+00  3.282835E+00 -3.790097E+00  1.481740E+00 -1.278433E+00
        39   3 -4.981463E+00 -3.052151E+00  2.676149E+00  2.153293E-01  4.720583E+00 -1.109815E+00
        39   4  8.924935E+00 -3.851257E+00 -5.629939E-01 -9.005768E-02  3.859712E+00 -9.627703E-01
        40   1  3.573051E+00 -1.086199E+01 -1.472993E+01 -2.299578E+00  3.652713E+00 -5.237809E-02
        40   2 -4.590947E-01 -1.229849E+01 -1.101970E+01 -3.093168E+00  3.971320E+00  2.524146E-01
        40   3  5.212350E-01 -9.725425E+00 -1.638888E+01 -3.057095E+00  4.586795E+00  2.548256E-01
        40   4 -1.902268E+00  6.198058E+00  8.348719E+00 -3.042441E+00  2.929866E+00 -1.190944E+00
        41   1 -9.306970E+00  3.748220E+00  4.769811E+00 -2.305328E+00  5.371866E+00 -1.744631E-01
        41   2 -5.297655E+00  4.779722E+00  1.066170E+01 -1.591917E+00  7.694750E-01 -5.116350E-01
        41   3 -1.085943E-02 -3.004480E-01  5.561211E+00 -5.011059E+00  1.004771E-01 -9.512279E-01
        41   4  1.177259E+01  8.911702E+00  1.302548E+01  6.917072E-01  7.916796E-01 -4.084390E-01
        42   1 -3.273345E+00 -4.298978E+00 -2.550131E+00  2.914450E+00 -2.322686E+00  5.014112E-01
        42   2 -9.055873E-01 -7.613963E+00 -2.682059E+00  1.296811E+00 -2.228327E+00  3.047203E-01
        42   3  4.501471E+00 -7.120065E+00 -7.061097E+00  1.904433E-01 -2.387252E+00  3.031146E-01
        42   4 -1.075158E+01  1.910147E+00  1.556677E+00  3.995367E+00 -4.166520E+00 -8.404868E-01
        43   1 -4.681431E-01 -2.405059E+00 -1.061823E+01  2.114389E+00 -2.273833E+00  4.146242E-01
        43   2 -1.060384E+01  1.225246E-01  3.210031E+00  3.601683E+00 -4.719442E+00 -7.423971E-01
        43   3 -3.189339E+00 -2.203972E+00 -5.394253E+00  1.879695E+00 -3.561187E+00  5.047744E-01
        43   4  4.641775E+00 -4.787511E+00 -9.770959E+00  1.644195E+00 -1.137247E+00  3.725159E-01
        44   1 -3.741232E+00  1.247887E+00  4.915232E+00  3.586413E+00 -1.201115E+00 -3.443451E-01
        44   2 -9.727576E-01 -1.539964E+00 -1.406684E+00  2.864653E+00 -1.298230E+00 -4.944746E-01
        44   3  1.024173E+01  5.018000E+00  6.645998E+00  1.032825E+00 -1.174246E+00 -2.241484E-01
        44   4 -5.656164E+00  5.331597E-01 -1.460175E+00  3.657728E+00 -3.560136E+00  4.713475E-02
        45   1 -8.710094E+00  1.517929E+00  1.202523E+00  8.276517E-01 -3.206601E+00  7.435892E-02
        45   2  7.387747E+00 -3.086848E+00 -3.841611E+00  8.359546E-01 -3.125968E+00 -2.653854E-01
        45   3 -3.998920E+00 -3.439825E+00 -7.042407E-01  7.590937E-01 -3.075417E+00 -3.607473E-01
        45   4 -1.026717E+01 -1.453051E+00  8.733588E-01  3.133325E+00 -3.503978E+00 -1.276345E-01
        46   1  5.545203E+00 -5.934163E-01 -2.047465E+00  7.408325E-01 -1.401406E+00  4.533472E-02
        46   2  2.948231E+00  3.192957E+00 -4.700988E-01  7.412732E-01 -4.286941E+00  2.972088E-01
        46   3  9.318138E+00  5.570410E+00  7.183998E+00  6.327117E-01 -2.157860E+00  5.114214E-01
        46   4  2.421093E+00  6.985959E-01  4.422178E-02  2.689016E+00 -4.872436E+00  3.032699E-01
        47   1 -1.629300E+01  5.235605E+00  7.569868E+00 -8.791504E-01  4.534555E-01 -3.814078E-01
        47   2 -4.965972E-01 -4.181216E+00 -1.380300E+01 -4.190458E+00  4.725843E+00 -3.411148E-01
        47   3 -7.056420E+00 -3.010758E+00 -4.042400E+00 -3.004359E+00  4.038120E+00 -1.253961E-02
        47   4 -1.722379E+00 -1.042218E+01 -4.943167E+00 -3.261953E+00  4.964481E+00 -3.306574E-01
        48   1  1.392654E+01  5.395042E+00  1.457995E+01 -2.300509E+00 -1.097284E+00 -1.832347E+00
        48   2  3.454326E+00 -1.019980E+00 -7.149330E+00 -7.410275E-01 -1.058507E+00  1.018256E+00
        48   3 -4.788456E-01  7.081864E-01 -5.818088E+00 -1.672057E+00  5.124588E-01  1.306529E+00
        48   4  5.197407E+00  4.081433E+00  7.499377E+00 -2.461910E+00  5.020886E+00 -1.572388E+00

 internal state variables (elem, integ.pnt.,values) for set EALL and time  0.3000000E+02

        37   1  2.349274E-03  2.808784E-03  3.933622E-03 -1.233099E-03  1.850863E-03  4.678389E-04  1.592513E-03  2.092107E-03  3.207980E-03 -8.064758E-04  1.087650E-03  3.118589E-04  6.568236E+02  1.314517E+01
        37   2 -1.389010E-04  2.742632E-03  1.556432E-03 -1.023529E-03  7.989327E-03  1.178090E-04 -2.771035E-04  2.098591E-03  1.448311E-03 -5.538402E-04  5.546876E-03  6.889241E-05  6.568236E+02  1.314517E+01
        37   3  5.258929E-03  1.114318E-03 -1.090721E-04 -2.400477E-04 -5.227397E-04 -1.339032E-03  5.546749E-03  1.758971E-03  5.259952E-04 -4.457831E-05 -9.263024E-04 -1.646107E-03  6.792291E+02  1.981920E+01
        37   4 -1.114871E-03  1.854957E-03  1.905257E-03 -6.249209E-03  9.825029E-03  1.147888E-04 -1.042531E-03  1.511183E-03  1.690273E-03 -4.120950E-03  7.017245E-03  2.510923E-05  6.568236E+02  1.314517E+01
        38   1  1.255917E-04 -1.466164E-04 -1.426140E-03  2.476548E-03 -1.055678E-03  2.006133E-04  8.020896E-05 -1.232607E-04 -7.110547E-04  1.156229E-03 -5.398959E-04 -4.045725E-05  6.137920E+02  5.974285E+00
        38   2  9.863576E-04  1.742231E-04 -2.738670E-04  3.912348E-03 -8.378620E-03  4.780073E-04  5.388731E-04  4.104583E-05 -4.627969E-04  2.312090E-03 -4.968969E-03  5.084255E-04  6.361080E+02  8.992784E+00
        38   3  1.419285E-03 -1.008649E-03 -1.317224E-03  2.206286E-03  3.034995E-04 -9.133252E-05  6.941957E-04 -5.303153E-04 -6.270713E-04  1.012395E-03 -4.936523E-05 -1.292178E-04  6.137920E+02  5.974285E+00
        38   4  2.932673E-03 -3.732998E-04  1.348020E-03  3.449515E-03 -3.222967E-04 -1.242203E-03  1.616245E-03 -3.345724E-04  4.949869E-04  1.896385E-03 -4.326465E-04 -4.715438E-04  6.361080E+02  8.992784E+00
        39   1 -4.498587E-03  4.169753E-03  1.546869E-03 -8.895138E-04  1.565986E-03 -1.116400E-03 -3.867749E-03  3.709802E-03  1.379217E-03 -3.788834E-04  2.856726E-04 -1.028563E-03  6.637473E+02  1.492348E+01
        39   2 -6.186725E-03  3.309850E-03  2.011898E-03 -7.495122E-03  2.708716E-03 -2.664612E-03 -5.560411E-03  3.092679E-03  1.815156E-03 -5.437454E-03  1.119216E-03 -2.385853E-03  6.637473E+02  1.492348E+01
        39   3 -2.500950E-03 -1.219358E-03  2.060190E-03  6.011348E-04  1.077570E-02 -2.643864E-03 -3.225796E-03 -8.571580E-04  2.960815E-03  1.514192E-03  1.307513E-02 -3.489558E-03  6.861527E+02  2.250039E+01
        39   4  4.765975E-03 -2.429467E-03 -5.280997E-04 -1.520949E-04  8.811993E-03 -2.261667E-03  5.629582E-03 -2.357673E-03  9.741609E-06  1.855960E-04  1.095010E-02 -2.981168E-03  6.861527E+02  2.250039E+01
        40   1  3.824313E-03 -4.701892E-03 -7.268737E-03 -5.488046E-03  8.691678E-03 -1.428125E-04  4.816628E-03 -6.213266E-03 -1.033757E-02 -7.696225E-03  1.250147E-02 -3.210222E-04  6.930764E+02  2.554430E+01
        40   2  1.594039E-03 -5.412698E-03 -4.905600E-03 -7.400818E-03  9.426679E-03  5.659567E-04  2.064837E-03 -6.988047E-03 -7.296634E-03 -1.039983E-02  1.332620E-02  5.149220E-04  6.930764E+02  2.554430E+01
        40   3  2.308909E-03 -3.772719E-03 -7.987472E-03 -7.223904E-03  1.094551E-02  5.702906E-04  3.151680E-03 -5.253574E-03 -1.118523E-02 -9.424263E-03  1.561044E-02  4.562582E-04  6.930764E+02  2.554430E+01
        40   4 -1.950389E-03  2.536529E-03  3.862875E-03 -6.234679E-03  6.018410E-03 -2.586390E-03 -1.662908E-03  2.710810E-03  4.216492E-03 -4.802437E-03  4.857100E-03 -2.633418E-03  6.706709E+02  1.694236E+01
        41   1 -4.567375E-03  1.879099E-03  2.521393E-03 -4.104686E-03  1.034348E-02 -3.814372E-04 -3.542101E-03  1.423639E-03  2.199816E-03 -1.882202E-03  7.711114E-03 -3.959092E-04  6.568236E+02  1.314517E+01
        41   2 -3.207822E-03  1.662701E-03  4.745223E-03 -2.653033E-03  1.375435E-03 -1.029927E-03 -2.243776E-03  1.232167E-03  3.823102E-03 -7.868459E-04  7.727746E-04 -8.306438E-04  6.568236E+02  1.314517E+01
        41   3 -3.905156E-04 -5.024072E-04  2.992676E-03 -1.101961E-02  8.202635E-05 -2.215656E-03 -3.027704E-04 -3.128829E-04  4.058078E-03 -1.131023E-02 -6.154752E-04 -2.561527E-03  6.792291E+02  1.981920E+01
        41   4  3.591479E-03  2.159604E-03  4.443043E-03  1.583681E-03  1.493081E-03 -8.156201E-04  2.661428E-03  1.561790E-03  3.634492E-03  1.811597E-03  1.038222E-03 -6.408344E-04  6.568236E+02  1.314517E+01
        42   1 -5.815636E-04 -7.917461E-04 -3.657194E-04  3.284781E-03 -2.646552E-03  6.359695E-04 -2.623391E-04 -2.882464E-04 -1.533217E-04  1.341006E-03 -1.119488E-03  3.106983E-04  6.068960E+02  5.265043E+00
        42   2  1.721510E-04 -1.646046E-03 -3.214721E-04  1.291661E-03 -2.412612E-03  3.826691E-04  7.417249E-05 -6.044764E-04 -1.019520E-04  4.006546E-04 -9.293237E-04  1.893689E-04  6.068960E+02  5.265043E+00
        42   3  1.661041E-03 -1.547111E-03 -1.737256E-03 -3.855130E-05 -2.713209E-03  3.382637E-04  7.008606E-04 -5.569448E-04 -7.540094E-04 -2.063726E-04 -1.141515E-03  1.379529E-04  6.068960E+02  5.265043E+00
        42   4 -3.751636E-03  9.249517E-04  8.843877E-04  6.327078E-03 -6.657519E-03 -1.158305E-03 -1.953278E-03  2.515556E-04  3.471897E-04  3.585794E-03 -3.903565E-03 -4.514693E-04  6.292120E+02  7.925199E+00
        43   1  4.672778E-04 -5.407429E-05 -2.646026E-03  2.186281E-03 -2.484381E-03  5.375295E-04  2.601439E-04  6.487303E-05 -1.142963E-03  7.572631E-04 -9.604695E-04  2.718910E-04  6.068960E+02  5.265043E+00
        43   2 -3.686958E-03  2.842426E-04  1.472771E-03  5.573026E-03 -7.643337E-03 -1.009645E-03 -1.901691E-03 -1.796629E-05  5.771294E-04  3.005625E-03 -4.589648E-03 -3.675710E-04  6.292120E+02  7.925199E+00
        43   3 -5.117351E-04 -1.788094E-04 -1.196911E-03  1.973964E-03 -4.185503E-03  6.280562E-04 -2.183565E-04 -4.301826E-05 -5.197488E-04  7.022078E-04 -1.849823E-03  2.971405E-04  6.068960E+02  5.265043E+00
        43   4  1.730849E-03 -9.122569E-04 -2.507206E-03  1.753881E-03 -1.148909E-03  4.135543E-04  7.448285E-04 -3.234391E-04 -1.068760E-03  6.425675E-04 -3.841117E-04  1.643503E-04  6.068960E+02  5.265043E+00
        44   1 -1.621549E-03  2.990691E-04  1.923689E-03  6.397170E-03 -2.215577E-03 -5.827184E-04 -6.703803E-04 -2.236838E-05  9.636624E-04  4.232427E-03 -1.578364E-03 -3.412941E-04  6.430040E+02  1.020418E+01
        44   2 -9.484884E-05 -3.523193E-04 -5.285750E-04  3.723538E-03 -1.989000E-03 -6.098233E-04  2.296751E-05 -1.715961E-04 -4.699942E-04  1.547703E-03 -1.156229E-03 -2.148152E-04  6.206880E+02  6.779066E+00
        44   3  3.220987E-03  8.192075E-04  1.605156E-03  2.032045E-03 -2.072614E-03 -3.537101E-04  1.981333E-03  2.769399E-04  7.896633E-04  1.670699E-03 -1.339181E-03 -1.697036E-04  6.430040E+02  1.020418E+01
        44   4 -1.954660E-03  5.297123E-04 -4.116604E-04  6.571478E-03 -6.322954E-03  9.564249E-05 -8.870352E-04  1.503380E-04 -5.038335E-04  4.376654E-03 -4.076412E-03  5.231289E-05  6.430040E+02  1.020418E+01
        45   1 -3.298699E-03  7.336463E-04  8.142463E-04  1.412178E-03 -5.655765E-03  1.697787E-04 -1.962971E-03  8.909356E-05  4.489205E-04  8.846500E-04 -3.876600E-03  1.763462E-04  6.361080E+02  8.992784E+00
        45   2  2.353915E-03 -9.879077E-04 -1.399509E-03  1.176077E-03 -3.994032E-03 -2.561641E-04  1.087057E-03 -4.425321E-04 -7.512882E-04  6.325777E-04 -1.847547E-03 -4.825726E-05  6.137920E+02  5.974285E+00
        45   3 -9.248613E-04 -7.541582E-04  2.095619E-05  1.067989E-03 -3.897316E-03 -4.115665E-04 -4.178310E-04 -3.416119E-04 -6.786816E-05  5.713686E-04 -1.776959E-03 -1.467610E-04  6.137920E+02  5.974285E+00
        45   4 -3.680573E-03 -2.076613E-04  9.582757E-04  5.115952E-03 -6.142579E-03 -1.400290E-04 -2.176447E-03 -4.184053E-04  5.647352E-04  2.807631E-03 -4.149847E-03  2.351048E-05  6.361080E+02  8.992784E+00
        46   1  1.722064E-03 -4.965293E-04 -9.606448E-04  1.117959E-03 -2.159608E-03  1.313020E-04  7.490992E-04 -4.084720E-04 -5.764115E-04  6.319673E-04 -1.269057E-03  1.370149E-04  6.206880E+02  6.779066E+00
        46   2  1.006367E-03  9.328028E-04 -6.282312E-04  1.336802E-03 -7.664984E-03  5.465042E-04  6.727914E-04  3.140176E-04 -5.653847E-04  8.911766E-04 -5.094307E-03  4.031368E-04  6.430040E+02  1.020418E+01
        46   3  2.877410E-03  9.974444E-04  1.870734E-03  1.106160E-03 -3.913513E-03  9.132531E-04  1.882505E-03  3.090657E-04  1.025335E-03  6.629293E-04 -2.706502E-03  6.231685E-04  6.430040E+02  1.020418E+01
        46   4  9.615923E-04  4.462607E-06 -2.614780E-04  4.694080E-03 -8.702649E-03  5.389942E-04  7.524686E-04 -2.186414E-04 -3.453021E-04  2.787693E-03 -5.782842E-03  3.637282E-04  6.430040E+02  1.020418E+01
        47   1 -8.502912E-03  3.109072E-03  4.523588E-03 -1.532362E-03  6.683191E-04 -8.186816E-04 -7.779783E-03  3.078376E-03  4.686214E-03 -1.230204E-04 -4.169328E-04 -5.345691E-04  6.706709E+02  1.694236E+01
        47   2  1.149208E-03 -1.015581E-03 -6.976372E-03 -9.901427E-03  1.124345E-02 -8.430960E-04  1.677309E-03 -1.323856E-03 -9.862281E-03 -1.315827E-02  1.588846E-02 -1.499032E-03  6.930764E+02  2.554430E+01
        47   3 -3.084302E-03 -6.793320E-04 -1.368462E-03 -7.079726E-03  9.564715E-03 -2.603643E-05 -4.247058E-03 -8.234286E-04 -1.987938E-03 -9.320117E-03  1.359188E-02 -9.879933E-06  6.930764E+02  2.554430E+01
        47   4  2.776529E-04 -4.837762E-03 -1.689120E-03 -7.729724E-03  1.175989E-02 -8.387562E-04  3.534397E-05 -6.311189E-03 -2.480801E-03 -1.031277E-02  1.652191E-02 -1.640108E-03  6.930764E+02  2.554430E+01
        48   1  4.844143E-03  5.106843E-04  5.510510E-03 -4.555979E-03 -2.282356E-03 -3.753401E-03  4.012157E-03  5.468295E-04  5.135584E-03 -3.451195E-03 -2.028276E-03 -3.144823E-03  6.637473E+02  1.492348E+01
        48   2  2.331441E-03 -8.956865E-05 -3.713233E-03 -1.657260E-03 -2.511865E-03  2.337661E-03  2.543446E-03  5.877290E-04 -4.071886E-03 -1.781597E-03 -3.355662E-03  2.985310E-03  6.861527E+02  2.250039E+01
        48   3  1.612104E-04  9.250752E-04 -2.856951E-03 -3.731219E-03  1.093824E-03  2.943063E-03  3.572494E-04  1.521075E-03 -3.003293E-03 -3.648825E-03  9.852317E-04  3.561297E-03  6.861527E+02  2.250039E+01
        48   4  1.505695E-03  1.005390E-03  2.931385E-03 -4.745855E-03  1.009194E-02 -3.284753E-03  1.244918E-03  8.636829E-04  2.912740E-03 -3.096762E-03  8.042179E-03 -3.139965E-03  6.637473E+02  1.492348E+01

 volume (element, volume) for set EALL and time  0.3000000E+02

        37  2.087500E+07
        38  2.079167E+07
        39  2.087500E+07
        40  2.087500E+07
        41  2.087500E+07
        42  2.079167E+07
        43  2.079167E+07
        44  2.079167E+07
        45  2.079167E+07
        46  2.079167E+07
        47  2.087500E+07
        48  2.087500E+07
