    1C
    1UUSER                                                              
    1UDATE              17.july.2018                                    
    1UTIME              15:21:10                                        
    1UHOST                                                              
    1UPGM               CalculiX                                        
    1UVERSION           Version 2.14                             
    1UCOMPILETIME       Tue Jul 17 10:10:03 DST 2018                    
    1UDIR                                                               
    1UDBN                                                               
    1UMAT    1ABAQUSATR2E                                               
    2C                            45                                     1
 -1         1 1.00000E+03 5.00000E+02 0.00000E+00
 -1         2 1.00000E+03 5.00000E+02 5.00000E+02
 -1         3 1.00000E+03 0.00000E+00 0.00000E+00
 -1         4 1.00000E+03 0.00000E+00 5.00000E+02
 -1         5 0.00000E+00 5.00000E+02 0.00000E+00
 -1         6 0.00000E+00 5.00000E+02 5.00000E+02
 -1         7 0.00000E+00 0.00000E+00 0.00000E+00
 -1         8 0.00000E+00 0.00000E+00 5.00000E+02
 -1         9 5.01000E+02 5.00000E+02 5.00000E+02
 -1        10 5.01000E+02 0.00000E+00 5.00000E+02
 -1        11 5.01000E+02 5.00000E+02 0.00000E+00
 -1        12 5.01000E+02 0.00000E+00 0.00000E+00
 -1        13 0.00000E+00 2.50000E+02 5.00000E+02
 -1        14 2.50500E+02 5.00000E+02 5.00000E+02
 -1        15 7.50500E+02 5.00000E+02 5.00000E+02
 -1        16 1.00000E+03 2.50000E+02 5.00000E+02
 -1        17 2.50500E+02 0.00000E+00 5.00000E+02
 -1        18 7.50500E+02 0.00000E+00 5.00000E+02
 -1        19 0.00000E+00 2.50000E+02 0.00000E+00
 -1        20 2.50500E+02 5.00000E+02 0.00000E+00
 -1        21 7.50500E+02 5.00000E+02 0.00000E+00
 -1        22 1.00000E+03 2.50000E+02 0.00000E+00
 -1        23 2.50500E+02 0.00000E+00 0.00000E+00
 -1        24 7.50500E+02 0.00000E+00 0.00000E+00
 -1        25 1.00000E+03 5.00000E+02 2.50000E+02
 -1        26 0.00000E+00 5.00000E+02 2.50000E+02
 -1        27 1.00000E+03 0.00000E+00 2.50000E+02
 -1        28 0.00000E+00 0.00000E+00 2.50000E+02
 -1        29 2.50500E+02 2.50000E+02 5.00000E+02
 -1        30 5.01000E+02 2.50000E+02 5.00000E+02
 -1        31 7.50500E+02 2.50000E+02 5.00000E+02
 -1        32 2.50500E+02 2.50000E+02 0.00000E+00
 -1        33 7.50500E+02 2.50000E+02 0.00000E+00
 -1        34 5.01000E+02 2.50000E+02 0.00000E+00
 -1        35 2.50500E+02 5.00000E+02 2.50000E+02
 -1        36 7.50500E+02 5.00000E+02 2.50000E+02
 -1        37 5.01000E+02 5.00000E+02 2.50000E+02
 -1        38 2.50500E+02 0.00000E+00 2.50000E+02
 -1        39 7.50500E+02 0.00000E+00 2.50000E+02
 -1        40 5.01000E+02 0.00000E+00 2.50000E+02
 -1        41 1.00000E+03 2.50000E+02 2.50000E+02
 -1        42 0.00000E+00 2.50000E+02 2.50000E+02
 -1        43 5.01000E+02 2.50000E+02 2.50000E+02
 -1        44 2.50500E+02 2.50000E+02 2.50000E+02
 -1        45 7.50500E+02 2.50000E+02 2.50000E+02
 -3
    3C                            12                                     1
 -1        37    6    0    1
 -2        10        12         8        11        40        38        17        43        34        44
 -1        38    6    0    1
 -2         2        11         4        10        36        45        16        31        43        18
 -1        39    6    0    1
 -2        12        11         7         8        34        32        23        38        44        28
 -1        40    6    0    1
 -2         8         7         6        11        28        42        13        44        32        35
 -1        41    6    0    1
 -2        11         9         6        10        37        14        35        43        30        29
 -1        42    6    0    1
 -2         1         3         4        11        22        27        41        21        33        45
 -1        43    6    0    1
 -2         2        11         1         4        36        21        25        16        45        41
 -1        44    6    0    1
 -2         9         2        10        11        15        31        30        37        36        43
 -1        45    6    0    1
 -2        12         4         3        11        39        27        24        34        45        33
 -1        46    6    0    1
 -2         4        12        10        11        39        40        18        45        34        43
 -1        47    6    0    1
 -2        11         6         5         7        35        26        20        32        42        19
 -1        48    6    0    1
 -2        10         8         6        11        17        13        29        43        44        35
 -3
    1PSTEP                         1           1           1          
  100CL  101 1.000000000          45                     0    1           1
 -4  DISP        4    1
 -5  D1          1    2    1    0
 -5  D2          1    2    2    0
 -5  D3          1    2    3    0
 -5  ALL         1    2    0    0    1ALL
 -1         1 1.58371E-01 6.94823E+00-8.57932E+00
 -1         2 5.12380E-03 6.91644E+00 0.00000E+00
 -1         3 2.65215E-01 0.00000E+00-8.54899E+00
 -1         4 0.00000E+00 0.00000E+00 0.00000E+00
 -1         5-1.38653E+01 6.13658E+00-8.75252E+00
 -1         6-1.38039E+01 6.14170E+00 0.00000E+00
 -1         7-1.35646E+01 0.00000E+00-8.75552E+00
 -1         8-1.33822E+01 0.00000E+00 0.00000E+00
 -1         9-7.04823E+00 6.97740E+00 0.00000E+00
 -1        10-6.87663E+00 0.00000E+00 0.00000E+00
 -1        11-6.95263E+00 6.99301E+00-9.17265E+00
 -1        12-6.79418E+00 0.00000E+00-9.16744E+00
 -1        13-1.34965E+01 3.08110E+00 0.00000E+00
 -1        14-1.05474E+01 6.65124E+00 0.00000E+00
 -1        15-3.49394E+00 6.99546E+00 0.00000E+00
 -1        16-1.10836E-02 3.46640E+00 0.00000E+00
 -1        17-1.02451E+01 0.00000E+00 0.00000E+00
 -1        18-3.42885E+00 0.00000E+00 0.00000E+00
 -1        19-1.35723E+01 3.10042E+00-8.75222E+00
 -1        20-1.06135E+01 6.61794E+00-9.02800E+00
 -1        21-3.33578E+00 6.97018E+00-8.87805E+00
 -1        22 2.19625E-01 3.48644E+00-8.56332E+00
 -1        23-1.03232E+01 0.00000E+00-9.05209E+00
 -1        24-3.22698E+00 0.00000E+00-8.89912E+00
 -1        25 1.33123E-02 6.93125E+00-4.30476E+00
 -1        26-1.37335E+01 6.13590E+00-4.41188E+00
 -1        27 4.06791E-02 0.00000E+00-4.28704E+00
 -1        28-1.34127E+01 0.00000E+00-4.39542E+00
 -1        29-1.03167E+01 3.32106E+00 0.00000E+00
 -1        30-6.92308E+00 3.48414E+00 0.00000E+00
 -1        31-3.46205E+00 3.49787E+00 0.00000E+00
 -1        32-1.03748E+01 3.30533E+00-9.03416E+00
 -1        33-3.25965E+00 3.49059E+00-8.89413E+00
 -1        34-6.83356E+00 3.48825E+00-9.17077E+00
 -1        35-1.05330E+01 6.63191E+00-4.51369E+00
 -1        36-3.46691E+00 6.98770E+00-4.44744E+00
 -1        37-7.02597E+00 6.97597E+00-4.56974E+00
 -1        38-1.02658E+01 0.00000E+00-4.53537E+00
 -1        39-3.38941E+00 0.00000E+00-4.45422E+00
 -1        40-6.86313E+00 0.00000E+00-4.56656E+00
 -1        41 2.38694E-02 3.48483E+00-4.30371E+00
 -1        42-1.34675E+01 3.09625E+00-4.40860E+00
 -1        43-6.90348E+00 3.48460E+00-4.57572E+00
 -1        44-1.03189E+01 3.32229E+00-4.52477E+00
 -1        45-3.42252E+00 3.49521E+00-4.44908E+00
 -3
    1PSTEP                         2           1           1          
  100CL  101 1.000000000          45                     0    1           1
 -4  STRESS      6    1
 -5  SXX         1    4    1    1
 -5  SYY         1    4    2    2
 -5  SZZ         1    4    3    3
 -5  SXY         1    4    1    2
 -5  SYZ         1    4    2    3
 -5  SZX         1    4    3    1
 -1         1 5.82514E-01 5.88608E-01 5.59427E-01-4.47939E-01-1.23802E-01 4.29589E-01
 -1         2 4.12167E-01 6.28837E-01 1.46825E+00-4.34525E-01-6.32111E-02 1.14525E-01
 -1         3 3.02446E-01 1.64088E+00 2.85041E-01-4.92820E-02-7.08924E-04 4.07499E-01
 -1         4-1.60274E+00 1.13813E+00 1.38564E+00-1.96520E-02-3.95954E-02 3.73284E-02
 -1         5 7.58086E-01 3.29805E-01 3.70800E-01 3.57751E-01-2.72298E-02-3.98824E-01
 -1         6 1.48918E-01 7.98386E-01 1.78010E+00 5.70825E-01-6.13845E-02-2.65828E-01
 -1         7-5.08619E-02 1.96795E+00 5.43043E-01 2.11564E-01 4.52928E-03-5.71919E-01
 -1         8-1.54566E+00 1.09393E+00 1.34054E+00-6.54136E-02-1.46188E-02 3.14113E-02
 -1         9 1.62298E+00-5.01758E-01-1.28789E+00-6.71194E-02 5.70436E-02 1.33666E-02
 -1        10-2.59075E+00-1.46786E+00-2.18992E+00-3.46526E-02 1.22791E-01 5.44023E-02
 -1        11 1.59303E+00-8.94613E-01-8.78673E-01-2.71243E-02 1.10562E-01 4.17860E-02
 -1        12 7.92702E-01-1.32236E+00-3.10189E-01 5.63452E-03-1.84643E-02 5.48909E-03
 -1        13-9.70603E-02 1.08473E+00 2.08751E+00 1.79544E-01-1.71439E-01-1.14038E-01
 -1        14 8.92080E-01 1.70156E-01-5.99520E-01 6.45644E-01 1.25497E-01 6.50287E-02
 -1        15 9.22572E-01 2.42580E-01-3.42735E-01-5.92412E-01 9.90083E-02 1.26033E-03
 -1        16-2.85817E-01 8.52120E-01 1.90015E+00-2.42084E-01-1.43841E-01-1.86643E-02
 -1        17-1.72939E+00-4.23614E-01-6.26879E-01 2.21763E-02 6.00206E-02 3.17360E-01
 -1        18-1.44159E+00-2.84400E-01-5.25286E-01-1.24189E-01 6.07862E-02-2.13450E-01
 -1        19-1.49333E-02 1.33979E+00 4.55888E-01 3.93701E-01-2.68745E-02-5.25413E-01
 -1        20 2.22578E+00-6.59769E-01-7.63206E-01 2.03916E-01 6.88761E-02-1.24829E-01
 -1        21 1.61046E+00-5.00015E-01-6.40492E-01-5.54985E-01 1.00908E-01 5.01724E-01
 -1        22 2.69723E-01 1.46537E+00 5.03185E-01-3.79108E-01-1.02407E-01 3.05920E-01
 -1        23 1.08152E+00-3.62178E-01-3.26158E-01-5.98913E-02 6.91632E-02-3.62370E-01
 -1        24 1.11553E+00-1.43792E-01-2.87192E-01 3.69781E-02 2.68687E-02 3.31256E-01
 -1        25 3.36059E-01 6.03943E-01 1.58945E+00-3.53043E-01-1.03746E-01 4.50547E-01
 -1        26 6.45515E-02 4.58618E-01 1.49098E+00 5.15265E-01-1.40133E-02-5.07737E-01
 -1        27-9.98330E-01 1.56555E+00 7.88422E-01 2.11500E-02-7.72377E-03 4.02915E-01
 -1        28-8.07319E-01 1.70020E+00 9.82493E-01 4.76016E-02 3.02834E-02-4.34660E-01
 -1        29-1.23835E+00-4.07646E-01-7.77281E-01 2.66386E-01 9.28494E-02 1.35167E-01
 -1        30-8.78214E-01-1.14309E+00-1.60859E+00-7.50760E-02 4.72435E-02 2.71748E-02
 -1        31-1.14845E+00-3.44564E-01-5.33015E-01-2.45245E-01 7.39685E-02-5.93424E-02
 -1        32 1.13367E+00 1.55953E-01-5.67965E-01 3.72596E-01 9.89508E-02-3.70784E-01
 -1        33 1.33954E+00 1.86445E-01-2.59632E-01-4.11377E-01 9.31012E-02 4.07690E-01
 -1        34 1.08488E+00-8.86176E-01-3.09163E-01 2.81621E-02 6.16096E-03-1.81315E-02
 -1        35 9.05432E-01-2.35547E-01 2.23297E-01 5.01124E-01 4.10202E-02-4.47435E-01
 -1        36 9.25210E-01 1.92424E-02 2.90156E-01-4.78541E-01 1.80188E-02 4.95961E-01
 -1        37 1.91807E+00-3.74653E-01-4.58519E-01-2.60536E-02-7.72580E-03-5.95146E-02
 -1        38-7.52359E-01-3.24646E-01 1.37813E-01-6.80033E-02 4.14626E-02-2.06429E-01
 -1        39-6.46603E-01-2.45159E-01 2.51228E-01 3.23179E-02 2.67517E-02 2.94851E-01
 -1        40-8.74877E-01-1.35571E+00-1.06025E+00-7.14377E-04-5.04548E-02 1.11387E-02
 -1        41-6.22660E-01 1.14565E+00 1.26927E+00-2.34088E-01-1.22079E-01 2.95233E-01
 -1        42-3.70784E-01 1.66282E+00 1.74663E+00 4.65754E-01-6.32315E-02-5.52876E-01
 -1        43-8.97267E-01-9.12294E-01-1.22258E+00 4.20323E-03 6.58716E-02-6.18901E-03
 -1        44-3.17830E-01-5.32737E-03 1.00658E-01 3.29632E-01 6.78708E-02-3.44193E-01
 -1        45-6.57122E-02 1.51811E-01 2.09655E-01-3.40256E-01 5.07330E-02 3.68289E-01
 -3
    1PSTEP                         3           1           1          
  100CL  101 1.000000000          45                     0    1           1
 -4  TOSTRAIN    6    1
 -5  EXX         1    4    1    1
 -5  EYY         1    4    2    2
 -5  EZZ         1    4    3    3
 -5  EXY         1    4    1    2
 -5  EYZ         1    4    2    3
 -5  EZX         1    4    3    1
 -1         1 1.37586E-02 1.37680E-02 1.70082E-02-1.35849E-04-4.02219E-05 1.30367E-04
 -1         2 1.38142E-02 1.38535E-02 1.72491E-02-1.33227E-04-2.11350E-05 2.95006E-05
 -1         3 1.37428E-02 1.39667E-02 1.69974E-02-9.74227E-06-9.05722E-07 1.24575E-04
 -1         4 1.35019E-02 1.39459E-02 1.72426E-02-1.63951E-07-1.30850E-05 3.78038E-06
 -1         5 1.21644E-02 1.20160E-02 1.72199E-02 1.95345E-04-1.20298E-05-2.14723E-04
 -1         6 1.21292E-02 1.22833E-02 1.77689E-02 2.99940E-04-2.88600E-05-1.53083E-04
 -1         7 1.19877E-02 1.24910E-02 1.73276E-02 1.24365E-04 4.18837E-06-3.04815E-04
 -1         8 1.18271E-02 1.24787E-02 1.77762E-02-1.63468E-05-4.56201E-06-5.00383E-06
 -1         9 1.44046E-02 1.39911E-02 1.82124E-02-2.82741E-05 2.13183E-05 6.55753E-06
 -1        10 1.37917E-02 1.40087E-02 1.82393E-02-1.73006E-05 4.85739E-05 2.52456E-05
 -1        11 1.45741E-02 1.40774E-02 1.84763E-02-1.52295E-06 4.30572E-05 8.01822E-06
 -1        12 1.43388E-02 1.39198E-02 1.85069E-02 9.44996E-07-8.09312E-06 2.08391E-06
 -1        13 1.19705E-02 1.22833E-02 1.77566E-02 1.07854E-04-8.09404E-05-7.43285E-05
 -1        14 1.34842E-02 1.33388E-02 1.79882E-02 2.93953E-04 5.71165E-05 2.22500E-05
 -1        15 1.41348E-02 1.40085E-02 1.77232E-02-2.03565E-04 3.39766E-05-2.98096E-06
 -1        16 1.36524E-02 1.38327E-02 1.72578E-02-7.09394E-05-4.76577E-05-1.20530E-05
 -1        17 1.29851E-02 1.32832E-02 1.80646E-02 1.07634E-05 2.49641E-05 1.35910E-04
 -1        18 1.37807E-02 1.39786E-02 1.77509E-02-4.10885E-05 2.13266E-05-7.60471E-05
 -1        19 1.19478E-02 1.22730E-02 1.72319E-02 2.14356E-04-1.18420E-05-2.81669E-04
 -1        20 1.37977E-02 1.31218E-02 1.79146E-02 9.17321E-05 3.02188E-05-5.60404E-05
 -1        21 1.42504E-02 1.38958E-02 1.76912E-02-1.86343E-04 3.52786E-05 1.68917E-04
 -1        22 1.36989E-02 1.38963E-02 1.69881E-02-1.14274E-04-3.35598E-05 9.16937E-05
 -1        23 1.35137E-02 1.31881E-02 1.79961E-02-2.34229E-05 3.44117E-05-1.74814E-04
 -1        24 1.41470E-02 1.39292E-02 1.77293E-02 1.43743E-05 8.54679E-06 1.10990E-04
 -1        25 1.37028E-02 1.37528E-02 1.71585E-02-1.06062E-04-3.38801E-05 1.36818E-04
 -1        26 1.19599E-02 1.20299E-02 1.75049E-02 2.78644E-04-5.04044E-06-2.72321E-04
 -1        27 1.35525E-02 1.39728E-02 1.70978E-02 1.23414E-05-3.10264E-06 1.23151E-04
 -1        28 1.18544E-02 1.24751E-02 1.75108E-02 4.09121E-05 1.79560E-05-2.33582E-04
 -1        29 1.31092E-02 1.32727E-02 1.80121E-02 1.34259E-04 3.85259E-05 5.07599E-05
 -1        30 1.40071E-02 1.39547E-02 1.82363E-02-3.79562E-05 1.75392E-05 1.18822E-05
 -1        31 1.38152E-02 1.39653E-02 1.77472E-02-7.84984E-05 2.68577E-05-2.46691E-05
 -1        32 1.35243E-02 1.33243E-02 1.79533E-02 1.66393E-04 4.37889E-05-1.74069E-04
 -1        33 1.41823E-02 1.39814E-02 1.77298E-02-1.43063E-04 3.18715E-05 1.37979E-04
 -1        34 1.43776E-02 1.39859E-02 1.84881E-02 2.03140E-05 1.93887E-06-9.02369E-06
 -1        35 1.34674E-02 1.32154E-02 1.81556E-02 2.30856E-04 1.76285E-05-1.98552E-04
 -1        36 1.41169E-02 1.39584E-02 1.78257E-02-1.63240E-04 5.96524E-06 1.73559E-04
 -1        37 1.44298E-02 1.39836E-02 1.83451E-02-1.14278E-05-3.65790E-06-2.89982E-05
 -1        38 1.31290E-02 1.32560E-02 1.81737E-02-2.65018E-05 1.97559E-05-9.07329E-05
 -1        39 1.38913E-02 1.39477E-02 1.78575E-02 1.34693E-05 8.83598E-06 1.01436E-04
 -1        40 1.40028E-02 1.39052E-02 1.83347E-02-1.01266E-06-1.97583E-05-1.00925E-06
 -1        41 1.35671E-02 1.38541E-02 1.71214E-02-6.87618E-05-3.96814E-05 8.82177E-05
 -1        42 1.17993E-02 1.23154E-02 1.75402E-02 2.55437E-04-3.07506E-05-2.99571E-04
 -1        43 1.40393E-02 1.40341E-02 1.83503E-02 2.89708E-06 2.66871E-05-1.16725E-05
 -1        44 1.32033E-02 1.33007E-02 1.81471E-02 1.39369E-04 3.03768E-05-1.46362E-04
 -1        45 1.39740E-02 1.39987E-02 1.78292E-02-1.19839E-04 1.74801E-05 1.29247E-04
 -3
    1PSTEP                         4           1           1          
  100CL  101 1.000000000          45                     0    1           1
 -4  ERROR       1    1
 -5  STR(%)      1    1    0    0
 -1         1 8.24233E+00
 -1         2 2.62382E+01
 -1         3 1.85343E+01
 -1         4 2.62382E+01
 -1         5 1.37516E+01
 -1         6 2.70777E+01
 -1         7 1.78550E+01
 -1         8 2.70777E+01
 -1         9 2.27630E+01
 -1        10 2.70777E+01
 -1        11 2.70777E+01
 -1        12 1.85343E+01
 -1        13 2.70777E+01
 -1        14 2.49203E+01
 -1        15 2.45006E+01
 -1        16 2.62382E+01
 -1        17 2.70777E+01
 -1        18 2.66579E+01
 -1        19 1.58033E+01
 -1        20 2.04146E+01
 -1        21 1.76600E+01
 -1        22 1.33883E+01
 -1        23 1.81946E+01
 -1        24 1.85343E+01
 -1        25 1.72403E+01
 -1        26 2.04146E+01
 -1        27 2.23862E+01
 -1        28 2.24663E+01
 -1        29 2.70777E+01
 -1        30 2.49203E+01
 -1        31 2.66579E+01
 -1        32 2.24663E+01
 -1        33 2.28060E+01
 -1        34 2.28060E+01
 -1        35 2.70777E+01
 -1        36 2.66579E+01
 -1        37 2.49203E+01
 -1        38 2.28060E+01
 -1        39 2.23862E+01
 -1        40 2.28060E+01
 -1        41 1.72403E+01
 -1        42 2.24663E+01
 -1        43 2.70777E+01
 -1        44 2.70777E+01
 -1        45 2.66579E+01
 -3
    1PSTEP                         5           2           1          
  100CL  102 2.000000000          45                     0    2           1
 -4  DISP        4    1
 -5  D1          1    2    1    0
 -5  D2          1    2    2    0
 -5  D3          1    2    3    0
 -5  ALL         1    2    0    0    1ALL
 -1         1-8.44097E-01 6.58064E+00-8.19630E+00
 -1         2-4.25151E-01 6.52612E+00 0.00000E+00
 -1         3-2.20849E-01 0.00000E+00-8.14429E+00
 -1         4 0.00000E+00 0.00000E+00 0.00000E+00
 -1         5-1.24617E+01 3.28104E+00-5.62591E+00
 -1         6-1.16418E+01 3.28560E+00 0.00000E+00
 -1         7-1.14708E+01 0.00000E+00-5.62487E+00
 -1         8-1.04172E+01 0.00000E+00 0.00000E+00
 -1         9-6.78215E+00 5.74805E+00 0.00000E+00
 -1        10-6.03778E+00 0.00000E+00 0.00000E+00
 -1        11-7.29383E+00 5.77676E+00-7.85395E+00
 -1        12-6.58025E+00 0.00000E+00-7.84580E+00
 -1        13-1.07416E+01 1.66441E+00 0.00000E+00
 -1        14-9.55389E+00 4.68714E+00 0.00000E+00
 -1        15-3.66432E+00 6.22881E+00 0.00000E+00
 -1        16-1.28269E-01 3.27638E+00 0.00000E+00
 -1        17-8.56064E+00 0.00000E+00 0.00000E+00
 -1        18-3.11337E+00 0.00000E+00 0.00000E+00
 -1        19-1.15873E+01 1.70430E+00-5.62446E+00
 -1        20-1.03729E+01 4.62868E+00-6.86154E+00
 -1        21-4.06670E+00 6.17961E+00-8.03064E+00
 -1        22-4.10814E-01 3.31133E+00-8.16862E+00
 -1        23-9.40908E+00 0.00000E+00-6.90494E+00
 -1        24-3.44326E+00 0.00000E+00-8.07138E+00
 -1        25-5.84840E-01 6.55112E+00-4.12384E+00
 -1        26-1.16824E+01 3.27874E+00-2.88261E+00
 -1        27-9.85685E-02 0.00000E+00-4.09276E+00
 -1        28-1.06504E+01 0.00000E+00-2.84881E+00
 -1        29-8.79934E+00 2.33643E+00 0.00000E+00
 -1        30-6.22537E+00 2.86553E+00 0.00000E+00
 -1        31-3.27952E+00 3.11347E+00 0.00000E+00
 -1        32-9.60791E+00 2.30958E+00-6.87275E+00
 -1        33-3.60895E+00 3.09900E+00-8.06188E+00
 -1        34-6.75745E+00 2.87311E+00-7.85138E+00
 -1        35-9.69527E+00 4.65430E+00-3.43259E+00
 -1        36-3.78498E+00 6.21339E+00-4.02928E+00
 -1        37-6.91123E+00 5.74543E+00-3.89634E+00
 -1        38-8.77279E+00 0.00000E+00-3.47272E+00
 -1        39-3.21444E+00 0.00000E+00-4.04246E+00
 -1        40-6.18445E+00 0.00000E+00-3.89124E+00
 -1        41-2.39021E-01 3.30883E+00-4.12222E+00
 -1        42-1.08613E+01 1.69529E+00-2.87569E+00
 -1        43-6.36478E+00 2.86609E+00-3.90767E+00
 -1        44-8.97647E+00 2.34092E+00-3.45323E+00
 -1        45-3.38106E+00 3.10748E+00-4.03246E+00
 -3
    1PSTEP                         6           2           1          
  100CL  102 2.000000000          45                     0    2           1
 -4  STRESS      6    1
 -5  SXX         1    4    1    1
 -5  SYY         1    4    2    2
 -5  SZZ         1    4    3    3
 -5  SXY         1    4    1    2
 -5  SYZ         1    4    2    3
 -5  SZX         1    4    3    1
 -1         1 7.67901E-01 7.96690E-01 7.58421E-01-6.02087E-01-1.55438E-01 5.71893E-01
 -1         2 5.45774E-01 7.81790E-01 1.72869E+00-5.97057E-01-7.22364E-02 1.83181E-01
 -1         3 4.72094E-01 2.09628E+00 3.94648E-01-1.00301E-01 8.95469E-03 5.92969E-01
 -1         4-2.04125E+00 1.35963E+00 1.66359E+00-6.11175E-02-5.22558E-02 7.57347E-02
 -1         5 6.88156E-01 3.08904E-01 3.36144E-01 3.29742E-01-2.01809E-02-3.57040E-01
 -1         6 1.65047E-01 8.57595E-01 1.92697E+00 5.45545E-01-8.46811E-02-2.29803E-01
 -1         7-1.13823E-01 2.02783E+00 4.97387E-01 1.69261E-01-2.14246E-02-5.21036E-01
 -1         8-1.54030E+00 1.32690E+00 1.55434E+00-1.03117E-01-2.31801E-02 6.22477E-02
 -1         9 1.90667E+00-5.99881E-01-1.50800E+00 1.37262E-02 6.53854E-02-9.44754E-03
 -1        10-2.98209E+00-1.71994E+00-2.52339E+00 8.69377E-05 1.43964E-01 6.41735E-02
 -1        11 1.81250E+00-1.02883E+00-9.93696E-01 6.32939E-02 1.34724E-01-4.84691E-02
 -1        12 8.93149E-01-1.54870E+00-3.70967E-01 1.88103E-02-1.83852E-02-1.04856E-01
 -1        13-1.07226E-01 1.12674E+00 2.14835E+00 1.49745E-01-1.80423E-01-9.12507E-02
 -1        14 1.06227E+00 2.85857E-01-3.87362E-01 7.14103E-01 1.09220E-01 5.47070E-02
 -1        15 1.11242E+00 2.31786E-01-6.12561E-01-7.22587E-01 1.35896E-01-6.01683E-03
 -1        16-3.31703E-01 1.08067E+00 2.40284E+00-3.45782E-01-1.88990E-01 6.46195E-03
 -1        17-1.83431E+00-2.82573E-01-5.04917E-01 2.37077E-02 6.45755E-02 3.33327E-01
 -1        18-1.77939E+00-5.04880E-01-7.84247E-01-1.55842E-01 7.69126E-02-2.64219E-01
 -1        19-1.13195E-01 1.30171E+00 4.05869E-01 3.58349E-01-3.98896E-02-4.80631E-01
 -1        20 2.36022E+00-5.88397E-01-6.70769E-01 2.78503E-01 8.37047E-02-1.84536E-01
 -1        21 1.96514E+00-7.45294E-01-9.18184E-01-6.41139E-01 1.39413E-01 5.64351E-01
 -1        22 3.99151E-01 1.95510E+00 7.21508E-01-5.26460E-01-1.24324E-01 4.41242E-01
 -1        23 1.11905E+00-2.37864E-01-2.88302E-01-5.72610E-02 5.70001E-02-4.12716E-01
 -1        24 1.37985E+00-3.01492E-01-4.01471E-01 4.56515E-02 3.86147E-02 3.76799E-01
 -1        25 4.94838E-01 8.50217E-01 2.10561E+00-4.92272E-01-1.27190E-01 6.26200E-01
 -1        26-6.71075E-03 4.25096E-01 1.40550E+00 4.79959E-01-1.99955E-02-4.53858E-01
 -1        27-1.19127E+00 2.00291E+00 9.90126E-01-9.36997E-03-3.07598E-03 5.69768E-01
 -1        28-8.52526E-01 1.80033E+00 9.98467E-01 8.02959E-03 1.24938E-02-3.84339E-01
 -1        29-1.34431E+00-3.43630E-01-6.28591E-01 2.83556E-01 8.72129E-02 1.58006E-01
 -1        30-9.98816E-01-1.34562E+00-1.87541E+00 4.99560E-03 5.57590E-02 3.56182E-02
 -1        31-1.37415E+00-4.99254E-01-8.11313E-01-2.99729E-01 9.70414E-02-5.08141E-02
 -1        32 1.20398E+00 2.63460E-01-4.97043E-01 4.42885E-01 9.27137E-02-4.29510E-01
 -1        33 1.64277E+00 1.20808E-01-3.66557E-01-4.61490E-01 1.27983E-01 4.74592E-01
 -1        34 1.21704E+00-1.04494E+00-3.62076E-01 7.35325E-02 9.58476E-03-1.29919E-01
 -1        35 9.93053E-01-1.58183E-01 3.74681E-01 5.82267E-01 3.13605E-02-5.24359E-01
 -1        36 1.12765E+00-2.76730E-02 2.08717E-01-5.53491E-01 3.63743E-02 5.53100E-01
 -1        37 2.21339E+00-4.51532E-01-5.56832E-01 7.65335E-02-6.84403E-03-1.32842E-01
 -1        38-7.01846E-01-1.76596E-01 3.12797E-01-7.59950E-02 3.75547E-02-2.67133E-01
 -1        39-8.70828E-01-4.58299E-01 1.74283E-01 3.66917E-02 3.84917E-02 3.15777E-01
 -1        40-1.01218E+00-1.59737E+00-1.23173E+00 2.71771E-03-5.60524E-02-3.80878E-02
 -1        41-7.63460E-01 1.52523E+00 1.67672E+00-3.39079E-01-1.58226E-01 4.05394E-01
 -1        42-4.36777E-01 1.58997E+00 1.61996E+00 4.21072E-01-8.08600E-02-4.94226E-01
 -1        43-1.04050E+00-1.07108E+00-1.41772E+00 7.63830E-02 7.82722E-02-3.86479E-02
 -1        44-2.78996E-01 1.38958E-01 2.55244E-01 4.07511E-01 6.54214E-02-4.21604E-01
 -1        45-1.45799E-01 7.40224E-02 1.45805E-01-3.72457E-01 7.09873E-02 3.94337E-01
 -3
    1PSTEP                         7           2           1          
  100CL  102 2.000000000          45                     0    2           1
 -4  TOSTRAIN    6    1
 -5  EXX         1    4    1    1
 -5  EYY         1    4    2    2
 -5  EZZ         1    4    3    3
 -5  EXY         1    4    1    2
 -5  EYZ         1    4    2    3
 -5  EZX         1    4    3    1
 -1         1 1.29071E-02 1.29395E-02 1.61347E-02-2.32149E-04-6.93437E-05 2.21290E-04
 -1         2 1.30378E-02 1.31059E-02 1.65501E-02-2.35496E-04-3.50646E-05 5.27447E-05
 -1         3 1.28987E-02 1.32838E-02 1.61235E-02-2.01244E-05 4.26906E-07 2.29313E-04
 -1         4 1.24938E-02 1.32478E-02 1.65382E-02-3.42724E-06-2.37262E-05 4.71218E-06
 -1         5 6.36190E-03 6.05174E-03 1.06944E-02 3.82172E-04-1.85138E-05-4.11780E-04
 -1         6 6.25011E-03 6.55284E-03 1.17675E-02 5.88928E-04-6.56916E-05-2.99313E-04
 -1         7 5.98746E-03 6.99543E-03 1.08851E-02 2.38658E-04-2.84774E-06-5.87703E-04
 -1         8 5.64147E-03 6.95887E-03 1.17723E-02-3.34971E-05-1.06607E-05-1.58859E-05
 -1         9 1.23414E-02 1.15640E-02 1.54627E-02-2.02990E-05 3.91728E-05 4.66276E-06
 -1        10 1.12020E-02 1.15970E-02 1.55149E-02-2.14038E-05 9.17401E-05 5.24290E-05
 -1        11 1.26486E-02 1.17262E-02 1.59534E-02 4.48246E-05 8.21611E-05-3.27889E-05
 -1        12 1.22143E-02 1.14312E-02 1.60100E-02 4.76403E-06-1.41756E-05-3.84624E-05
 -1        13 5.93389E-03 6.57112E-03 1.17417E-02 2.13348E-04-1.58488E-04-1.49127E-04
 -1        14 9.69973E-03 9.43671E-03 1.36077E-02 5.79231E-04 9.96089E-05 2.92399E-05
 -1        15 1.27394E-02 1.24953E-02 1.59944E-02-3.59170E-04 6.47908E-05-1.21908E-05
 -1        16 1.27515E-02 1.30521E-02 1.65652E-02-1.24485E-04-8.61668E-05-1.96503E-05
 -1        17 8.74131E-03 9.35325E-03 1.37498E-02 2.19381E-05 4.65499E-05 2.51556E-04
 -1        18 1.20996E-02 1.24238E-02 1.60478E-02-7.19976E-05 3.92398E-05-1.38668E-04
 -1        19 5.92490E-03 6.56200E-03 1.07163E-02 4.16392E-04-2.82201E-05-5.43762E-04
 -1        20 1.03151E-02 9.02121E-03 1.34371E-02 2.02770E-04 6.26488E-05-1.29654E-04
 -1        21 1.29252E-02 1.22893E-02 1.59585E-02-3.11085E-04 6.86416E-05 2.77722E-04
 -1        22 1.28090E-02 1.31611E-02 1.61030E-02-1.99550E-04-5.70041E-05 1.64447E-04
 -1        23 9.76147E-03 9.17713E-03 1.35832E-02-3.84902E-05 6.13583E-05-3.56723E-04
 -1        24 1.27442E-02 1.23348E-02 1.60331E-02 2.77944E-05 1.59950E-05 1.82240E-04
 -1        25 1.28170E-02 1.29158E-02 1.63924E-02-1.85241E-04-5.77494E-05 2.40515E-04
 -1        26 5.95602E-03 6.07859E-03 1.12517E-02 5.44604E-04-1.11244E-05-5.20552E-04
 -1        27 1.25728E-02 1.32958E-02 1.62884E-02 1.74568E-05-4.21405E-06 2.21565E-04
 -1        28 5.71933E-03 6.95795E-03 1.12496E-02 7.63972E-05 2.88748E-05-4.47811E-04
 -1        29 8.99683E-03 9.31396E-03 1.36530E-02 2.72158E-04 6.58601E-05 9.32745E-05
 -1        30 1.16020E-02 1.14960E-02 1.55080E-02-4.59560E-05 3.28115E-05 2.53178E-05
 -1        31 1.21507E-02 1.24139E-02 1.60397E-02-1.30890E-04 5.17252E-05-4.17799E-05
 -1        32 9.77671E-03 9.43140E-03 1.35080E-02 3.37692E-04 7.77364E-05-3.55185E-04
 -1        33 1.28087E-02 1.24317E-02 1.60351E-02-2.41358E-04 6.08757E-05 2.32555E-04
 -1        34 1.22845E-02 1.15534E-02 1.59761E-02 6.37935E-05 4.74117E-06-6.04537E-05
 -1        35 9.66750E-03 9.20152E-03 1.39170E-02 4.68860E-04 2.77816E-05-3.98070E-04
 -1        36 1.26991E-02 1.24077E-02 1.61848E-02-2.76066E-04 1.50369E-05 2.92724E-04
 -1        37 1.23828E-02 1.15512E-02 1.57077E-02 1.76793E-05-6.06406E-06-8.43608E-05
 -1        38 9.01467E-03 9.30248E-03 1.39458E-02-4.81899E-05 3.59703E-05-1.91649E-04
 -1        39 1.22998E-02 1.23687E-02 1.62471E-02 2.59326E-05 1.69842E-05 1.64176E-04
 -1        40 1.15937E-02 1.14032E-02 1.56914E-02-1.49289E-06-3.58651E-05-2.67422E-05
 -1        41 1.25842E-02 1.30867E-02 1.63269E-02-1.21928E-04-6.99598E-05 1.51656E-04
 -1        42 5.63207E-03 6.64174E-03 1.13153E-02 4.95790E-04-6.81697E-05-5.75041E-04
 -1        43 1.16597E-02 1.16451E-02 1.57188E-02 3.38217E-05 5.13647E-05-4.37729E-05
 -1        44 9.15202E-03 9.38229E-03 1.38984E-02 2.82905E-04 5.53629E-05-2.96822E-04
 -1        45 1.24485E-02 1.24663E-02 1.61948E-02-2.01115E-04 3.40547E-05 2.13542E-04
 -3
    1PSTEP                         8           2           1          
  100CL  102 2.000000000          45                     0    2           1
 -4  ERROR       1    1
 -5  STR(%)      1    1    0    0
 -1         1 8.49984E+00
 -1         2 2.56979E+01
 -1         3 1.88549E+01
 -1         4 2.56979E+01
 -1         5 1.55073E+01
 -1         6 2.82227E+01
 -1         7 1.55073E+01
 -1         8 2.82227E+01
 -1         9 2.20844E+01
 -1        10 2.82227E+01
 -1        11 2.82227E+01
 -1        12 1.88549E+01
 -1        13 2.82227E+01
 -1        14 2.51536E+01
 -1        15 2.38912E+01
 -1        16 2.56979E+01
 -1        17 2.82227E+01
 -1        18 2.69603E+01
 -1        19 1.55073E+01
 -1        20 2.18650E+01
 -1        21 1.83613E+01
 -1        22 1.36773E+01
 -1        23 1.71811E+01
 -1        24 1.88549E+01
 -1        25 1.70989E+01
 -1        26 2.18650E+01
 -1        27 2.22764E+01
 -1        28 2.18650E+01
 -1        29 2.82227E+01
 -1        30 2.51536E+01
 -1        31 2.69603E+01
 -1        32 2.18650E+01
 -1        33 2.35388E+01
 -1        34 2.35388E+01
 -1        35 2.82227E+01
 -1        36 2.69603E+01
 -1        37 2.51536E+01
 -1        38 2.35388E+01
 -1        39 2.22764E+01
 -1        40 2.35388E+01
 -1        41 1.70989E+01
 -1        42 2.18650E+01
 -1        43 2.82227E+01
 -1        44 2.82227E+01
 -1        45 2.69603E+01
 -3
    1PSTEP                         9           3           1          
  100CL  103 3.000000000          45                     0    3           1
 -4  DISP        4    1
 -5  D1          1    2    1    0
 -5  D2          1    2    2    0
 -5  D3          1    2    3    0
 -5  ALL         1    2    0    0    1ALL
 -1         1-1.78740E+00 6.20838E+00-7.80719E+00
 -1         2-8.34221E-01 6.13393E+00 0.00000E+00
 -1         3-6.78206E-01 0.00000E+00-7.73661E+00
 -1         4 0.00000E+00 0.00000E+00 0.00000E+00
 -1         5-1.10534E+01 6.03153E-01-2.72951E+00
 -1         6-9.54358E+00 6.03920E-01 0.00000E+00
 -1         7-9.42529E+00 0.00000E+00-2.72199E+00
 -1         8-7.58422E+00 0.00000E+00 0.00000E+00
 -1         9-6.50078E+00 4.55207E+00 0.00000E+00
 -1        10-5.21993E+00 0.00000E+00 0.00000E+00
 -1        11-7.57701E+00 4.59314E+00-6.57758E+00
 -1        12-6.34140E+00 0.00000E+00-6.56695E+00
 -1        13-8.10148E+00 3.33360E-01 0.00000E+00
 -1        14-8.56600E+00 2.81233E+00 0.00000E+00
 -1        15-3.81410E+00 5.47436E+00 0.00000E+00
 -1        16-2.39034E-01 3.08472E+00 0.00000E+00
 -1        17-6.93223E+00 0.00000E+00 0.00000E+00
 -1        18-2.80451E+00 0.00000E+00 0.00000E+00
 -1        19-9.64899E+00 3.90929E-01-2.72635E+00
 -1        20-1.00697E+01 2.73190E+00-4.81450E+00
 -1        21-4.73883E+00 5.40279E+00-7.20094E+00
 -1        22-1.00326E+00 3.13285E+00-7.76933E+00
 -1        23-8.48429E+00 0.00000E+00-4.87425E+00
 -1        24-3.63115E+00 0.00000E+00-7.25979E+00
 -1        25-1.14969E+00 6.16780E+00-3.93844E+00
 -1        26-9.69418E+00 5.98761E-01-1.46096E+00
 -1        27-2.27816E-01 0.00000E+00-3.89572E+00
 -1        28-8.00433E+00 0.00000E+00-1.41254E+00
 -1        29-7.32634E+00 1.39782E+00 0.00000E+00
 -1        30-5.53956E+00 2.26424E+00 0.00000E+00
 -1        31-3.09521E+00 2.73518E+00 0.00000E+00
 -1        32-8.81925E+00 1.36085E+00-4.83008E+00
 -1        33-3.92184E+00 2.71411E+00-7.24608E+00
 -1        34-6.64792E+00 2.27522E+00-6.57437E+00
 -1        35-8.85069E+00 2.76757E+00-2.41168E+00
 -1        36-4.07155E+00 5.45166E+00-3.61952E+00
 -1        37-6.77016E+00 4.54896E+00-3.24628E+00
 -1        38-7.31964E+00 0.00000E+00-2.46602E+00
 -1        39-3.03599E+00 0.00000E+00-3.63852E+00
 -1        40-5.51429E+00 0.00000E+00-3.23953E+00
 -1        41-4.85254E-01 3.12958E+00-3.93629E+00
 -1        42-8.36322E+00 3.77479E-01-1.45061E+00
 -1        43-5.82629E+00 2.26541E+00-3.26206E+00
 -1        44-7.66425E+00 1.40417E+00-2.43974E+00
 -1        45-3.32799E+00 2.72603E+00-3.62399E+00
 -3
    1PSTEP                        10           3           1          
  100CL  103 3.000000000          45                     0    3           1
 -4  STRESS      6    1
 -5  SXX         1    4    1    1
 -5  SYY         1    4    2    2
 -5  SZZ         1    4    3    3
 -5  SXY         1    4    1    2
 -5  SYZ         1    4    2    3
 -5  SZX         1    4    3    1
 -1         1 8.27286E-01 8.69376E-01 8.19504E-01-6.56537E-01-1.65191E-01 6.15467E-01
 -1         2 5.92675E-01 8.10086E-01 1.75308E+00-6.50373E-01-7.02963E-02 2.08961E-01
 -1         3 5.30502E-01 2.23585E+00 4.26949E-01-1.23168E-01 1.75732E-02 6.60385E-01
 -1         4-2.17161E+00 1.39954E+00 1.70158E+00-7.90912E-02-5.55486E-02 8.50219E-02
 -1         5 6.81009E-01 3.10598E-01 3.24623E-01 3.32792E-01-2.15445E-02-3.46842E-01
 -1         6 1.88263E-01 8.51527E-01 1.90829E+00 5.55247E-01-7.73567E-02-2.38820E-01
 -1         7-1.36262E-01 2.05902E+00 4.91632E-01 1.84376E-01-1.69634E-02-5.16766E-01
 -1         8-1.58469E+00 1.31621E+00 1.51192E+00-1.06961E-01-2.00349E-02 8.00854E-02
 -1         9 1.97810E+00-5.98725E-01-1.45664E+00 4.31480E-02 6.01970E-02-1.78725E-02
 -1        10-3.04083E+00-1.72612E+00-2.50972E+00 6.78606E-03 1.45900E-01 5.95919E-02
 -1        11 1.86378E+00-1.08330E+00-1.02766E+00 8.05774E-02 1.38755E-01-6.88302E-02
 -1        12 9.00428E-01-1.56118E+00-3.59726E-01 2.51114E-02-2.02728E-02-1.33602E-01
 -1        13-1.32141E-01 1.13066E+00 2.11260E+00 1.57763E-01-1.73555E-01-8.65098E-02
 -1        14 1.09385E+00 2.90121E-01-3.65424E-01 7.21920E-01 1.16453E-01 4.68870E-02
 -1        15 1.15670E+00 2.08478E-01-7.06369E-01-7.48971E-01 1.49258E-01-1.48564E-02
 -1        16-3.35251E-01 1.14271E+00 2.53050E+00-3.85192E-01-2.03362E-01 1.76153E-02
 -1        17-1.86716E+00-2.71723E-01-4.94076E-01 1.82772E-02 6.48939E-02 3.36902E-01
 -1        18-1.87371E+00-5.86328E-01-8.63342E-01-1.62514E-01 8.14686E-02-2.85623E-01
 -1        19-1.35944E-01 1.33933E+00 3.95992E-01 3.68519E-01-4.18479E-02-4.74950E-01
 -1        20 2.40424E+00-6.00823E-01-6.65914E-01 2.85932E-01 9.10079E-02-1.87946E-01
 -1        21 2.05602E+00-8.51289E-01-1.02620E+00-6.54817E-01 1.52031E-01 5.62432E-01
 -1        22 4.45196E-01 2.13469E+00 8.05021E-01-5.83693E-01-1.27598E-01 4.91955E-01
 -1        23 1.13652E+00-2.32293E-01-2.77094E-01-4.89111E-02 6.22149E-02-4.19257E-01
 -1        24 1.43443E+00-3.59864E-01-4.42873E-01 5.19359E-02 4.48186E-02 3.78220E-01
 -1        25 5.61357E-01 9.46983E-01 2.27441E+00-5.45470E-01-1.32953E-01 6.93582E-01
 -1        26 1.62255E-03 4.30191E-01 1.41294E+00 4.91091E-01-2.37533E-02-4.56910E-01
 -1        27-1.23406E+00 2.13819E+00 1.03538E+00-2.51434E-02 2.58093E-03 6.27654E-01
 -1        28-8.86774E-01 1.80822E+00 9.92252E-01 1.42859E-02 1.84392E-02-3.71788E-01
 -1        29-1.33900E+00-3.34523E-01-6.08746E-01 2.84180E-01 9.46322E-02 1.55390E-01
 -1        30-9.99134E-01-1.35491E+00-1.83792E+00 3.18153E-02 5.07663E-02 3.35660E-02
 -1        31-1.42058E+00-5.48277E-01-9.01878E-01-3.13625E-01 1.03605E-01-5.19408E-02
 -1        32 1.22423E+00 2.82129E-01-4.93131E-01 4.57088E-01 9.51255E-02-4.39007E-01
 -1        33 1.71319E+00 7.58819E-02-4.04490E-01-4.69910E-01 1.40654E-01 4.82828E-01
 -1        34 1.22561E+00-1.05002E+00-3.52302E-01 7.88474E-02 7.36026E-03-1.60217E-01
 -1        35 1.03682E+00-1.65670E-01 3.91545E-01 5.97995E-01 3.20753E-02-5.33484E-01
 -1        36 1.18360E+00-5.81240E-02 1.46722E-01-5.67790E-01 4.54054E-02 5.59840E-01
 -1        37 2.27637E+00-4.51744E-01-5.11888E-01 1.09686E-01-1.31381E-02-1.38762E-01
 -1        38-7.07141E-01-1.67794E-01 3.12339E-01-7.59950E-02 3.65078E-02-2.67019E-01
 -1        39-9.54262E-01-5.43727E-01 1.10401E-01 4.21129E-02 4.45625E-02 3.08714E-01
 -1        40-1.03332E+00-1.58793E+00-1.20605E+00 4.69724E-03-5.57483E-02-4.93090E-02
 -1        41-7.99633E-01 1.66406E+00 1.80749E+00-3.82609E-01-1.69906E-01 4.41872E-01
 -1        42-4.47198E-01 1.63159E+00 1.62768E+00 4.39005E-01-8.37633E-02-5.02353E-01
 -1        43-1.05817E+00-1.07446E+00-1.40113E+00 9.05824E-02 7.73820E-02-4.26837E-02
 -1        44-2.87824E-01 1.43185E-01 2.54989E-01 4.14104E-01 6.17072E-02-4.22239E-01
 -1        45-1.80563E-01 2.39203E-02 9.74497E-02-3.76073E-01 7.82908E-02 3.84576E-01
 -3
    1PSTEP                        11           3           1          
  100CL  103 3.000000000          45                     0    3           1
 -4  TOSTRAIN    6    1
 -5  EXX         1    4    1    1
 -5  EYY         1    4    2    2
 -5  EZZ         1    4    3    3
 -5  EXY         1    4    1    2
 -5  EYZ         1    4    2    3
 -5  EZX         1    4    3    1
 -1         1 1.20562E-02 1.21125E-02 1.52632E-02-3.15096E-04-9.52111E-05 2.97969E-04
 -1         2 1.22615E-02 1.23535E-02 1.58316E-02-3.25491E-04-4.63332E-05 7.26218E-05
 -1         3 1.20573E-02 1.25862E-02 1.52538E-02-2.91385E-05 2.58873E-06 3.21246E-04
 -1         4 1.15143E-02 1.25366E-02 1.58142E-02-6.23156E-06-3.30408E-05 3.81157E-06
 -1         5 9.14799E-04 4.91450E-04 4.68933E-03 5.26332E-04-2.34727E-05-5.55747E-04
 -1         6 7.54533E-04 1.17223E-03 6.16643E-03 8.22328E-04-9.44790E-05-4.12858E-04
 -1         7 3.82328E-04 1.81117E-03 4.93662E-03 3.29070E-04-9.81418E-06-8.03064E-04
 -1         8-1.17854E-04 1.75301E-03 6.16735E-03-5.29113E-05-1.56340E-05-1.31844E-05
 -1         9 1.02979E-02 9.19844E-03 1.28150E-02-5.87353E-06 5.35011E-05 1.29553E-06
 -1        10 8.68940E-03 9.24689E-03 1.28882E-02-2.41286E-05 1.28488E-04 7.40540E-05
 -1        11 1.07158E-02 9.42365E-03 1.34901E-02 8.87185E-05 1.15446E-04-7.32655E-05
 -1        12 1.01074E-02 9.01536E-03 1.35723E-02 9.53253E-06-1.90646E-05-7.94944E-05
 -1        13 3.05615E-04 1.20779E-03 6.12949E-03 2.96311E-04-2.19509E-04-2.00907E-04
 -1        14 6.07337E-03 5.70514E-03 9.47657E-03 8.19344E-04 1.36806E-04 3.19044E-05
 -1        15 1.13557E-02 1.10038E-02 1.43079E-02-4.94358E-04 9.26993E-05-2.25668E-05
 -1        16 1.18647E-02 1.22677E-02 1.58516E-02-1.71276E-04-1.20480E-04-2.71847E-05
 -1        17 4.71906E-03 5.60441E-03 9.67007E-03 2.94905E-05 6.52744E-05 3.49165E-04
 -1        18 1.04607E-02 1.08955E-02 1.43835E-02-9.88156E-05 5.53904E-05-1.96236E-04
 -1        19 3.00225E-04 1.20627E-03 4.71808E-03 5.74795E-04-4.39771E-05-7.40125E-04
 -1        20 6.93894E-03 5.12678E-03 9.22641E-03 3.00271E-04 9.41201E-05-1.93607E-04
 -1        21 1.16023E-02 1.07137E-02 1.42667E-02-4.18947E-04 9.90443E-05 3.69077E-04
 -1        22 1.19245E-02 1.24166E-02 1.52224E-02-2.74098E-04-7.71120E-05 2.27145E-04
 -1        23 6.15542E-03 5.35792E-03 9.42661E-03-4.73493E-05 8.41170E-05-5.07126E-04
 -1        24 1.13490E-02 1.07709E-02 1.43753E-02 4.12125E-05 2.31959E-05 2.40892E-04
 -1        25 1.19377E-02 1.20817E-02 1.56142E-02-2.53932E-04-7.87534E-05 3.31212E-04
 -1        26 3.55125E-04 5.27684E-04 5.45895E-03 7.53252E-04-1.87481E-05-7.09053E-04
 -1        27 1.16152E-02 1.26035E-02 1.54731E-02 2.19441E-05-4.44320E-06 3.07534E-04
 -1        28 4.34305E-06 1.75461E-03 5.44389E-03 1.01213E-04 3.76968E-05-6.06718E-04
 -1        29 5.08628E-03 5.53819E-03 9.53968E-03 3.85496E-04 9.19493E-05 1.28940E-04
 -1        30 9.25652E-03 9.10405E-03 1.28781E-02-4.65110E-05 4.49331E-05 3.59984E-05
 -1        31 1.05261E-02 1.08895E-02 1.43710E-02-1.76369E-04 7.41687E-05-5.85477E-05
 -1        32 6.18018E-03 5.70866E-03 9.32176E-03 4.87306E-04 1.06485E-04-5.08158E-04
 -1        33 1.14415E-02 1.09055E-02 1.43786E-02-3.28029E-04 8.73695E-05 3.12573E-04
 -1        34 1.02042E-02 9.18619E-03 1.35250E-02 1.01070E-04 7.18375E-06-1.11407E-04
 -1        35 6.03304E-03 5.37672E-03 9.89955E-03 6.73082E-04 3.63696E-05-5.68502E-04
 -1        36 1.12958E-02 1.08832E-02 1.45719E-02-3.74245E-04 2.41539E-05 3.96287E-04
 -1        37 1.03524E-02 9.18130E-03 1.31550E-02 5.07602E-05-9.51747E-06-1.30699E-04
 -1        38 5.11138E-03 5.53121E-03 9.93936E-03-6.66534E-05 4.83419E-05-2.76009E-04
 -1        39 1.07407E-02 1.08186E-02 1.46621E-02 3.85825E-05 2.48516E-05 2.16009E-04
 -1        40 9.23826E-03 8.97615E-03 1.31338E-02-1.43681E-06-4.92652E-05-5.02926E-05
 -1        41 1.16205E-02 1.23137E-02 1.55236E-02-1.68675E-04-9.67854E-05 2.05355E-04
 -1        42-9.83400E-05 1.31339E-03 5.54193E-03 6.85628E-04-1.01811E-04-7.85657E-04
 -1        43 9.33263E-03 9.31334E-03 1.31705E-02 6.25422E-05 7.13202E-05-7.10374E-05
 -1        44 5.30123E-03 5.64058E-03 9.87307E-03 4.07472E-04 7.46036E-05-4.25243E-04
 -1        45 1.09502E-02 1.09564E-02 1.45884E-02-2.72695E-04 4.94137E-05 2.84593E-04
 -3
    1PSTEP                        12           3           1          
  100CL  103 3.000000000          45                     0    3           1
 -4  ERROR       1    1
 -5  STR(%)      1    1    0    0
 -1         1 8.70214E+00
 -1         2 2.53422E+01
 -1         3 1.91745E+01
 -1         4 2.53422E+01
 -1         5 1.57204E+01
 -1         6 5.07818E+01
 -1         7 1.57204E+01
 -1         8 2.80995E+01
 -1         9 5.07818E+01
 -1        10 5.07818E+01
 -1        11 5.07818E+01
 -1        12 1.91745E+01
 -1        13 3.94406E+01
 -1        14 5.07818E+01
 -1        15 3.80620E+01
 -1        16 2.53422E+01
 -1        17 3.94406E+01
 -1        18 3.80620E+01
 -1        19 1.57204E+01
 -1        20 3.32511E+01
 -1        21 2.97420E+01
 -1        22 1.39383E+01
 -1        23 1.74475E+01
 -1        24 1.91745E+01
 -1        25 1.70222E+01
 -1        26 3.32511E+01
 -1        27 2.22583E+01
 -1        28 2.19100E+01
 -1        29 5.07818E+01
 -1        30 5.07818E+01
 -1        31 3.80620E+01
 -1        32 3.32511E+01
 -1        33 3.49781E+01
 -1        34 3.49781E+01
 -1        35 5.07818E+01
 -1        36 3.80620E+01
 -1        37 5.07818E+01
 -1        38 2.36370E+01
 -1        39 2.22583E+01
 -1        40 3.49781E+01
 -1        41 1.70222E+01
 -1        42 3.32511E+01
 -1        43 5.07818E+01
 -1        44 3.94406E+01
 -1        45 3.80620E+01
 -3
    1PSTEP                        13           4           1          
  100CL  104 4.000000000          45                     0    4           1
 -4  DISP        4    1
 -5  D1          1    2    1    0
 -5  D2          1    2    2    0
 -5  D3          1    2    3    0
 -5  ALL         1    2    0    0    1ALL
 -1         1-2.67425E+00 5.83233E+00-7.41281E+00
 -1         2-1.22405E+00 5.74073E+00 0.00000E+00
 -1         3-1.10828E+00 0.00000E+00-7.32644E+00
 -1         4 0.00000E+00 0.00000E+00 0.00000E+00
 -1         5-9.63930E+00-1.89350E+00-6.77183E-02
 -1         6-7.51147E+00-1.89938E+00 0.00000E+00
 -1         7-7.42946E+00 0.00000E+00-5.13977E-02
 -1         8-4.88954E+00 0.00000E+00 0.00000E+00
 -1         9-6.20586E+00 3.38911E+00 0.00000E+00
 -1        10-4.42419E+00 0.00000E+00 0.00000E+00
 -1        11-7.80404E+00 3.44126E+00-5.34194E+00
 -1        12-6.07910E+00 0.00000E+00-5.32999E+00
 -1        13-5.58058E+00-9.10243E-01 0.00000E+00
 -1        14-7.58506E+00 1.02740E+00 0.00000E+00
 -1        15-3.94524E+00 4.73240E+00 0.00000E+00
 -1        16-3.43889E-01 2.89191E+00 0.00000E+00
 -1        17-5.36373E+00 0.00000E+00 0.00000E+00
 -1        18-2.50221E+00 0.00000E+00 0.00000E+00
 -1        19-7.75807E+00-8.37787E-01-6.24271E-02
 -1        20-9.70162E+00 9.30221E-01-2.88961E+00
 -1        21-5.35495E+00 4.64066E+00-6.38967E+00
 -1        22-1.55974E+00 2.95160E+00-7.36627E+00
 -1        23-7.54909E+00 0.00000E+00-2.96177E+00
 -1        24-3.79248E+00 0.00000E+00-6.46504E+00
 -1        25-1.68340E+00 5.78216E+00-3.74912E+00
 -1        26-7.76989E+00-1.90037E+00-1.49297E-01
 -1        27-3.47859E-01 0.00000E+00-3.69633E+00
 -1        28-5.47879E+00 0.00000E+00-8.88013E-02
 -1        29-5.90053E+00 5.05321E-01 0.00000E+00
 -1        30-4.86682E+00 1.67997E+00 0.00000E+00
 -1        31-2.90953E+00 2.36303E+00 0.00000E+00
 -1        32-8.00884E+00 4.59921E-01-2.90886E+00
 -1        33-4.20041E+00 2.33620E+00-6.44740E+00
 -1        34-6.50661E+00 1.69408E+00-5.33858E+00
 -1        35-7.99989E+00 9.73702E-01-1.45142E+00
 -1        36-4.32884E+00 4.70306E+00-3.21826E+00
 -1        37-6.60438E+00 3.38586E+00-2.61866E+00
 -1        38-5.90903E+00 0.00000E+00-1.51598E+00
 -1        39-2.85462E+00 0.00000E+00-3.24283E+00
 -1        40-4.85388E+00 0.00000E+00-2.61097E+00
 -1        41-7.16250E-01 2.94770E+00-3.74658E+00
 -1        42-5.97619E+00-8.55200E-01-1.35791E-01
 -1        43-5.28930E+00 1.68179E+00-2.63823E+00
 -1        44-6.38453E+00 5.12447E-01-1.48502E+00
 -1        45-3.26411E+00 2.35111E+00-3.22398E+00
 -3
    1PSTEP                        14           4           1          
  100CL  104 4.000000000          45                     0    4           1
 -4  STRESS      6    1
 -5  SXX         1    4    1    1
 -5  SYY         1    4    2    2
 -5  SZZ         1    4    3    3
 -5  SXY         1    4    1    2
 -5  SYZ         1    4    2    3
 -5  SZX         1    4    3    1
 -1         1 8.24636E-01 8.80439E-01 8.17751E-01-6.63053E-01-1.62548E-01 6.11864E-01
 -1         2 6.00891E-01 8.03433E-01 1.69372E+00-6.59415E-01-6.79768E-02 2.14258E-01
 -1         3 5.43169E-01 2.24601E+00 4.27423E-01-1.32538E-01 2.22244E-02 6.74098E-01
 -1         4-2.15032E+00 1.37670E+00 1.64984E+00-8.53919E-02-5.62698E-02 8.67668E-02
 -1         5 6.18187E-01 2.92941E-01 2.86275E-01 3.11812E-01-1.82597E-02-3.05130E-01
 -1         6 2.04253E-01 8.12609E-01 1.79049E+00 5.25508E-01-7.66913E-02-2.20571E-01
 -1         7-1.60617E-01 1.97027E+00 4.45080E-01 1.71756E-01-2.48601E-02-4.67356E-01
 -1         8-1.50341E+00 1.29075E+00 1.44060E+00-1.06841E-01-1.91203E-02 9.01141E-02
 -1         9 1.95978E+00-5.82580E-01-1.37625E+00 6.76090E-02 5.59224E-02-2.50847E-02
 -1        10-2.94347E+00-1.68023E+00-2.39810E+00 1.14630E-02 1.43081E-01 5.42392E-02
 -1        11 1.80222E+00-1.06699E+00-9.86260E-01 9.53244E-02 1.36200E-01-8.75757E-02
 -1        12 8.47104E-01-1.52903E+00-3.48458E-01 2.87220E-02-1.84227E-02-1.53069E-01
 -1        13-1.34628E-01 1.08296E+00 1.95989E+00 1.49099E-01-1.61603E-01-7.02697E-02
 -1        14 1.09080E+00 2.98980E-01-2.93848E-01 6.98835E-01 1.09261E-01 2.85126E-02
 -1        15 1.14814E+00 1.88009E-01-7.33540E-01-7.37473E-01 1.51274E-01-2.57250E-02
 -1        16-3.14525E-01 1.13819E+00 2.50008E+00-3.93188E-01-2.06639E-01 2.63672E-02
 -1        17-1.78253E+00-2.29851E-01-4.38627E-01 1.61015E-02 6.30493E-02 3.17906E-01
 -1        18-1.84949E+00-6.16048E-01-8.69362E-01-1.58381E-01 8.19354E-02-2.90514E-01
 -1        19-1.72494E-01 1.26830E+00 3.46683E-01 3.43553E-01-4.62271E-02-4.25781E-01
 -1        20 2.30897E+00-5.49594E-01-5.84235E-01 2.94220E-01 9.63813E-02-1.93326E-01
 -1        21 2.01162E+00-8.90998E-01-1.05210E+00-6.33044E-01 1.55073E-01 5.26787E-01
 -1        22 4.54770E-01 2.16599E+00 8.24510E-01-5.96493E-01-1.22975E-01 5.02619E-01
 -1        23 1.07956E+00-1.99569E-01-2.38555E-01-3.54926E-02 5.53817E-02-4.05711E-01
 -1        24 1.38883E+00-3.84219E-01-4.52188E-01 5.63892E-02 4.77744E-02 3.57463E-01
 -1        25 5.86241E-01 9.77308E-01 2.27351E+00-5.59900E-01-1.29622E-01 7.04788E-01
 -1        26-6.93659E-03 3.99427E-01 1.28631E+00 4.59618E-01-2.72492E-02-4.08763E-01
 -1        27-1.19970E+00 2.14973E+00 1.01153E+00-3.48387E-02 5.94544E-03 6.36585E-01
 -1        28-8.55114E-01 1.73397E+00 9.29420E-01 8.90765E-03 1.33771E-02-3.26516E-01
 -1        29-1.25993E+00-3.01953E-01-5.35962E-01 2.72215E-01 9.15235E-02 1.41534E-01
 -1        30-9.46541E-01-1.31925E+00-1.74867E+00 5.35481E-02 4.76428E-02 2.95128E-02
 -1        31-1.39269E+00-5.57876E-01-9.19279E-01-3.10383E-01 1.03633E-01-5.45446E-02
 -1        32 1.16456E+00 3.00116E-01-4.34121E-01 4.53008E-01 8.76026E-02-4.29927E-01
 -1        33 1.67101E+00 4.17376E-02-4.10355E-01-4.55969E-01 1.43505E-01 4.61605E-01
 -1        34 1.15604E+00-1.02930E+00-3.39115E-01 7.76800E-02 7.11878E-03-1.79013E-01
 -1        35 1.01998E+00-1.41971E-01 4.08901E-01 5.88269E-01 2.72801E-02-5.16436E-01
 -1        36 1.16923E+00-7.51177E-02 9.52128E-02-5.54894E-01 4.95074E-02 5.36816E-01
 -1        37 2.22724E+00-4.41812E-01-4.76054E-01 1.31911E-01-1.56979E-02-1.31920E-01
 -1        38-6.56106E-01-1.34271E-01 3.31893E-01-7.02461E-02 3.19299E-02-2.59217E-01
 -1        39-9.69810E-01-5.77663E-01 6.05481E-02 4.73032E-02 4.80646E-02 2.86645E-01
 -1        40-1.00615E+00-1.54384E+00-1.14812E+00 5.75163E-03-5.20771E-02-5.35990E-02
 -1        41-7.84761E-01 1.68874E+00 1.80476E+00-3.96334E-01-1.69638E-01 4.45750E-01
 -1        42-4.45661E-01 1.53065E+00 1.47129E+00 4.08050E-01-8.86417E-02-4.52095E-01
 -1        43-1.02392E+00-1.04696E+00-1.33825E+00 9.65914E-02 7.46253E-02-4.08020E-02
 -1        44-2.71296E-01 1.68305E-01 2.74369E-01 4.06763E-01 5.47936E-02-4.08688E-01
 -1        45-1.95733E-01-1.09599E-02 5.88024E-02-3.63359E-01 8.01834E-02 3.57192E-01
 -3
    1PSTEP                        15           4           1          
  100CL  104 4.000000000          45                     0    4           1
 -4  TOSTRAIN    6    1
 -5  EXX         1    4    1    1
 -5  EYY         1    4    2    2
 -5  EZZ         1    4    3    3
 -5  EXY         1    4    1    2
 -5  EYZ         1    4    2    3
 -5  EZX         1    4    3    1
 -1         1 1.12083E-02 1.12876E-02 1.43941E-02-3.87922E-04-1.17325E-04 3.63713E-04
 -1         2 1.14851E-02 1.15982E-02 1.50971E-02-4.06774E-04-5.62978E-05 9.05023E-05
 -1         3 1.12212E-02 1.18775E-02 1.43879E-02-3.79927E-05 4.77016E-06 4.03449E-04
 -1         4 1.05605E-02 1.18153E-02 1.50745E-02-9.21988E-06-4.15546E-05 4.04691E-06
 -1         5-4.16076E-03-4.65871E-03-7.88099E-04 6.33134E-04-2.64377E-05-6.51508E-04
 -1         6-4.35078E-03-3.85119E-03 9.74305E-04 1.00025E-03-1.17638E-04-4.95234E-04
 -1         7-4.81868E-03-3.05377E-03-5.08842E-04 3.96658E-04-1.86435E-05-9.54589E-04
 -1         8-5.44000E-03-3.13309E-03 9.69776E-04-7.22978E-05-1.96385E-05-3.48095E-07
 -1         9 8.27154E-03 6.89490E-03 1.02653E-02 1.43477E-05 6.51502E-05-4.08735E-06
 -1        10 6.26317E-03 6.95505E-03 1.03571E-02-2.48447E-05 1.59316E-04 9.02984E-05
 -1        11 8.76834E-03 7.17118E-03 1.10880E-02 1.29214E-04 1.43093E-04-1.12258E-04
 -1        12 8.01613E-03 6.67006E-03 1.11931E-02 1.48768E-05-2.23820E-05-1.20762E-04
 -1        13-4.90619E-03-3.79878E-03 9.28680E-04 3.58081E-04-2.64930E-04-2.32261E-04
 -1        14 2.60596E-03 2.14662E-03 5.59636E-03 1.01248E-03 1.66038E-04 2.85287E-05
 -1        15 9.98349E-03 9.53574E-03 1.26637E-02-6.11479E-04 1.17326E-04-3.39239E-05
 -1        16 1.09902E-02 1.14814E-02 1.51210E-02-2.12998E-04-1.51548E-04-3.21993E-05
 -1        17 9.28822E-04 2.03671E-03 5.82839E-03 3.46691E-05 8.08450E-05 4.26656E-04
 -1        18 8.86602E-03 9.39359E-03 1.27600E-02-1.21624E-04 6.98807E-05-2.47458E-04
 -1        19-4.91305E-03-3.78700E-03-7.55240E-04 6.92439E-04-5.90035E-05-8.75572E-04
 -1        20 3.66322E-03 1.44536E-03 5.29098E-03 3.85919E-04 1.23342E-04-2.49214E-04
 -1        21 1.02800E-02 9.17006E-03 1.26171E-02-5.10056E-04 1.26588E-04 4.42482E-04
 -1        22 1.10479E-02 1.16646E-02 1.43462E-02-3.40447E-04-9.41745E-05 2.82747E-04
 -1        23 2.69530E-03 1.73346E-03 5.53071E-03-4.95944E-05 1.00608E-04-6.26515E-04
 -1        24 9.96147E-03 9.23850E-03 1.27563E-02 5.40486E-05 3.00660E-05 2.87832E-04
 -1        25 1.10670E-02 1.12516E-02 1.48255E-02-3.15782E-04-9.66922E-05 4.10979E-04
 -1        26-4.83014E-03-4.61653E-03 1.35407E-04 9.08713E-04-2.71543E-05-8.40028E-04
 -1        27 1.06796E-02 1.18995E-02 1.46527E-02 2.46670E-05-4.44225E-06 3.84118E-04
 -1        28-5.28027E-03-3.12804E-03 1.02747E-04 1.17085E-04 4.28543E-05-7.13245E-04
 -1        29 1.38565E-03 1.94668E-03 5.67464E-03 4.73944E-04 1.14285E-04 1.56028E-04
 -1        30 6.97406E-03 6.77817E-03 1.03436E-02-3.90941E-05 5.50086E-05 4.38142E-05
 -1        31 8.94400E-03 9.39243E-03 1.27419E-02-2.16400E-04 9.39011E-05-7.39781E-05
 -1        32 2.72935E-03 2.16198E-03 5.40321E-03 6.13577E-04 1.28383E-04-6.32420E-04
 -1        33 1.00798E-02 9.40518E-03 1.27611E-02-4.01991E-04 1.11147E-04 3.78167E-04
 -1        34 8.13391E-03 6.88247E-03 1.11350E-02 1.31447E-04 9.48129E-06-1.60823E-04
 -1        35 2.56023E-03 1.74708E-03 6.10900E-03 8.41472E-04 4.22558E-05-7.07598E-04
 -1        36 9.90531E-03 9.38617E-03 1.29884E-02-4.58622E-04 3.28894E-05 4.82533E-04
 -1        37 8.33398E-03 6.87462E-03 1.06838E-02 8.64526E-05-1.30177E-05-1.67529E-04
 -1        38 1.42283E-03 1.94355E-03 6.15773E-03-8.11026E-05 5.66983E-05-3.44182E-04
 -1        39 9.21303E-03 9.29814E-03 1.31042E-02 5.09271E-05 3.24765E-05 2.57125E-04
 -1        40 6.94209E-03 6.62088E-03 1.06599E-02-9.29944E-07-5.97277E-05-7.10167E-05
 -1        41 1.06759E-02 1.15364E-02 1.47132E-02-2.11099E-04-1.20208E-04 2.52677E-04
 -1        42-5.38292E-03-3.66170E-03 2.29494E-04 8.26593E-04-1.31892E-04-9.33587E-04
 -1        43 7.06154E-03 7.03763E-03 1.07032E-02 8.87939E-05 8.73038E-05-9.25190E-05
 -1        44 1.65200E-03 2.07938E-03 6.07652E-03 5.11924E-04 8.82539E-05-5.29809E-04
 -1        45 9.47667E-03 9.47054E-03 1.30121E-02-3.33593E-04 6.34011E-05 3.41908E-04
 -3
    1PSTEP                        16           4           1          
  100CL  104 4.000000000          45                     0    4           1
 -4  ERROR       1    1
 -5  STR(%)      1    1    0    0
 -1         1 8.86117E+00
 -1         2 2.50633E+01
 -1         3 2.07870E+01
 -1         4 2.50633E+01
 -1         5 1.62414E+01
 -1         6 5.05402E+01
 -1         7 1.62414E+01
 -1         8 2.84357E+01
 -1         9 5.05402E+01
 -1        10 5.05402E+01
 -1        11 5.05402E+01
 -1        12 2.07870E+01
 -1        13 3.94879E+01
 -1        14 5.05402E+01
 -1        15 3.78017E+01
 -1        16 2.50633E+01
 -1        17 3.94879E+01
 -1        18 3.78017E+01
 -1        19 1.62414E+01
 -1        20 3.33908E+01
 -1        21 2.97007E+01
 -1        22 1.48241E+01
 -1        23 1.85142E+01
 -1        24 2.07870E+01
 -1        25 1.69622E+01
 -1        26 3.33908E+01
 -1        27 2.29251E+01
 -1        28 2.23385E+01
 -1        29 5.05402E+01
 -1        30 5.05402E+01
 -1        31 3.78017E+01
 -1        32 3.33908E+01
 -1        33 3.56636E+01
 -1        34 3.56636E+01
 -1        35 5.05402E+01
 -1        36 3.78017E+01
 -1        37 5.05402E+01
 -1        38 2.46113E+01
 -1        39 2.29251E+01
 -1        40 3.56636E+01
 -1        41 1.69622E+01
 -1        42 3.33908E+01
 -1        43 5.05402E+01
 -1        44 3.94879E+01
 -1        45 3.78017E+01
 -3
    1PSTEP                        17           5           1          
  100CL  105 5.000000000          45                     0    5           1
 -4  DISP        4    1
 -5  D1          1    2    1    0
 -5  D2          1    2    2    0
 -5  D3          1    2    3    0
 -5  ALL         1    2    0    0    1ALL
 -1         1-3.50429E+00 5.45253E+00-7.01308E+00
 -1         2-1.59475E+00 5.34664E+00 0.00000E+00
 -1         3-1.51098E+00 0.00000E+00-6.91375E+00
 -1         4 0.00000E+00 0.00000E+00 0.00000E+00
 -1         5-8.21850E+00-4.20535E+00 2.35521E+00
 -1         6-5.54559E+00-4.22070E+00 0.00000E+00
 -1         7-5.48343E+00 0.00000E+00 2.38293E+00
 -1         8-2.33591E+00 0.00000E+00 0.00000E+00
 -1         9-5.89715E+00 2.25939E+00 0.00000E+00
 -1        10-3.65130E+00 0.00000E+00 0.00000E+00
 -1        11-7.97389E+00 2.32125E+00-4.14710E+00
 -1        12-5.79303E+00 0.00000E+00-4.13516E+00
 -1        13-3.18099E+00-2.06453E+00 0.00000E+00
 -1        14-6.61065E+00-6.65953E-01 0.00000E+00
 -1        15-4.05774E+00 4.00294E+00 0.00000E+00
 -1        16-4.42858E-01 2.69799E+00 0.00000E+00
 -1        17-3.85677E+00 0.00000E+00 0.00000E+00
 -1        18-2.20664E+00 0.00000E+00 0.00000E+00
 -1        19-5.91466E+00-1.97999E+00 2.36300E+00
 -1        20-9.26661E+00-7.74229E-01-1.08928E+00
 -1        21-5.91464E+00 3.89365E+00-5.59723E+00
 -1        22-2.08013E+00 2.76760E+00-6.95946E+00
 -1        23-6.60289E+00 0.00000E+00-1.16980E+00
 -1        24-3.92717E+00 0.00000E+00-5.68736E+00
 -1        25-2.18597E+00 5.39426E+00-3.55585E+00
 -1        26-5.90985E+00-4.21502E+00 1.05020E+00
 -1        27-4.58702E-01 0.00000E+00-3.49459E+00
 -1        28-3.07553E+00 0.00000E+00 1.12028E+00
 -1        29-4.52310E+00-3.40209E-01 0.00000E+00
 -1        30-4.20772E+00 1.11281E+00 0.00000E+00
 -1        31-2.72259E+00 1.99701E+00 0.00000E+00
 -1        32-7.17596E+00-3.91946E-01-1.11141E+00
 -1        33-4.44448E+00 1.96537E+00-5.66610E+00
 -1        34-6.33304E+00 1.12981E+00-4.14417E+00
 -1        35-7.14223E+00-7.25366E-01-5.53191E-01
 -1        36-4.55675E+00 3.96776E+00-2.82549E+00
 -1        37-6.41347E+00 2.25635E+00-2.01362E+00
 -1        38-4.54187E+00 0.00000E+00-6.23849E-01
 -1        39-2.67039E+00 0.00000E+00-2.85548E+00
 -1        40-4.20360E+00 0.00000E+00-2.00576E+00
 -1        41-9.32096E-01 2.76319E+00-3.55309E+00
 -1        42-3.70187E+00-2.00085E+00 1.06652E+00
 -1        43-4.75398E+00 1.11529E+00-2.03631E+00
 -1        44-5.13791E+00-3.33163E-01-5.90428E-01
 -1        45-3.18936E+00 1.98277E+00-2.83254E+00
 -3
    1PSTEP                        18           5           1          
  100CL  105 5.000000000          45                     0    5           1
 -4  STRESS      6    1
 -5  SXX         1    4    1    1
 -5  SYY         1    4    2    2
 -5  SZZ         1    4    3    3
 -5  SXY         1    4    1    2
 -5  SYZ         1    4    2    3
 -5  SZX         1    4    3    1
 -1         1 7.87764E-01 8.59748E-01 7.83447E-01-6.44173E-01-1.52734E-01 5.82966E-01
 -1         2 5.88778E-01 7.80200E-01 1.58462E+00-6.45883E-01-6.61569E-02 2.08763E-01
 -1         3 5.33810E-01 2.18869E+00 4.12122E-01-1.34638E-01 2.38818E-02 6.59988E-01
 -1         4-2.04351E+00 1.31902E+00 1.54863E+00-8.57816E-02-5.58761E-02 8.57867E-02
 -1         5 5.21013E-01 2.60937E-01 2.30361E-01 2.75302E-01-1.38247E-02-2.44663E-01
 -1         6 2.18379E-01 7.45330E-01 1.60425E+00 4.75545E-01-7.12973E-02-1.93079E-01
 -1         7-1.84832E-01 1.80824E+00 3.75642E-01 1.53098E-01-3.02511E-02-3.94780E-01
 -1         8-1.36404E+00 1.22354E+00 1.31076E+00-1.05285E-01-1.76758E-02 1.00761E-01
 -1         9 1.88578E+00-5.53321E-01-1.25952E+00 9.44738E-02 5.00865E-02-3.27949E-02
 -1        10-2.74527E+00-1.58789E+00-2.20750E+00 1.54375E-02 1.36252E-01 4.41424E-02
 -1        11 1.67447E+00-1.01253E+00-9.03486E-01 1.05697E-01 1.28342E-01-1.03204E-01
 -1        12 7.57715E-01-1.45330E+00-3.26142E-01 3.21092E-02-1.56467E-02-1.68681E-01
 -1        13-1.34544E-01 9.92344E-01 1.71951E+00 1.34211E-01-1.41754E-01-4.95778E-02
 -1        14 1.05585E+00 3.03985E-01-1.98099E-01 6.53339E-01 9.88993E-02 8.45493E-03
 -1        15 1.10929E+00 1.66977E-01-7.29297E-01-7.03763E-01 1.46669E-01-3.75019E-02
 -1        16-2.77519E-01 1.09935E+00 2.38415E+00-3.83804E-01-2.04548E-01 3.47755E-02
 -1        17-1.62989E+00-1.73449E-01-3.60874E-01 1.21525E-02 5.85906E-02 2.86801E-01
 -1        18-1.75702E+00-6.21744E-01-8.38350E-01-1.48420E-01 8.02219E-02-2.86669E-01
 -1        19-2.10625E-01 1.14957E+00 2.77623E-01 3.04145E-01-4.86584E-02-3.54520E-01
 -1        20 2.12303E+00-4.75593E-01-4.73815E-01 2.93337E-01 9.87920E-02-1.91404E-01
 -1        21 1.88840E+00-8.96585E-01-1.03390E+00-5.90358E-01 1.53288E-01 4.70626E-01
 -1        22 4.45723E-01 2.11701E+00 8.10633E-01-5.84917E-01-1.14140E-01 4.92370E-01
 -1        23 9.76921E-01-1.56643E-01-1.87500E-01-1.98661E-02 4.77759E-02-3.77349E-01
 -1        24 1.28636E+00-3.94003E-01-4.45016E-01 6.01353E-02 4.84628E-02 3.22922E-01
 -1        25 5.89450E-01 9.73979E-01 2.17844E+00-5.54081E-01-1.21003E-01 6.84210E-01
 -1        26-1.45843E-02 3.51183E-01 1.10257E+00 4.09037E-01-2.95052E-02-3.41565E-01
 -1        27-1.11947E+00 2.09625E+00 9.50079E-01-4.18624E-02 7.48541E-03 6.19743E-01
 -1        28-7.94425E-01 1.59419E+00 8.24042E-01 2.56100E-03 9.12732E-03-2.63008E-01
 -1        29-1.13324E+00-2.54763E-01-4.32855E-01 2.49521E-01 8.69049E-02 1.22593E-01
 -1        30-8.58782E-01-1.24990E+00-1.61018E+00 7.67621E-02 4.34822E-02 2.28472E-02
 -1        31-1.32148E+00-5.48583E-01-9.02484E-01-2.98061E-01 9.95135E-02-5.78116E-02
 -1        32 1.05952E+00 3.13221E-01-3.53122E-01 4.34707E-01 7.68823E-02-4.05215E-01
 -1        33 1.56413E+00 1.00429E-02-3.99471E-01-4.27871E-01 1.40870E-01 4.22588E-01
 -1        34 1.03955E+00-9.80015E-01-3.15420E-01 7.24472E-02 6.78678E-03-1.92884E-01
 -1        35 9.70399E-01-1.09326E-01 4.20005E-01 5.59753E-01 2.12192E-02-4.81158E-01
 -1        36 1.11389E+00-8.64769E-02 4.36283E-02-5.25817E-01 5.11275E-02 4.94812E-01
 -1        37 2.10942E+00-4.22779E-01-4.32954E-01 1.53396E-01-1.77313E-02-1.18587E-01
 -1        38-5.76486E-01-8.83787E-02 3.45578E-01-6.21930E-02 2.52227E-02-2.42063E-01
 -1        39-9.49881E-01-5.88311E-01 1.48975E-02 5.25987E-02 5.00764E-02 2.54451E-01
 -1        40-9.46970E-01-1.46332E+00-1.05769E+00 6.99410E-03-4.64314E-02-5.64628E-02
 -1        41-7.40570E-01 1.65133E+00 1.72835E+00-3.94469E-01-1.62773E-01 4.32546E-01
 -1        42-4.25595E-01 1.37224E+00 1.24959E+00 3.62727E-01-8.98338E-02-3.82979E-01
 -1        43-9.54597E-01-9.91446E-01-1.23254E+00 9.88316E-02 6.95226E-02-3.74436E-02
 -1        44-2.43974E-01 1.93918E-01 2.88622E-01 3.85410E-01 4.43731E-02-3.80107E-01
 -1        45-2.01948E-01-4.15868E-02 2.26142E-02-3.40097E-01 7.94723E-02 3.18130E-01
 -3
    1PSTEP                        19           5           1          
  100CL  105 5.000000000          45                     0    5           1
 -4  TOSTRAIN    6    1
 -5  EXX         1    4    1    1
 -5  EYY         1    4    2    2
 -5  EZZ         1    4    3    3
 -5  EXY         1    4    1    2
 -5  EYZ         1    4    2    3
 -5  EZX         1    4    3    1
 -1         1 1.03642E-02 1.04647E-02 1.35274E-02-4.51541E-04-1.35529E-04 4.19403E-04
 -1         2 1.07085E-02 1.08401E-02 1.43466E-02-4.79606E-04-6.52652E-05 1.06752E-04
 -1         3 1.03912E-02 1.11580E-02 1.35257E-02-4.69333E-05 6.74788E-06 4.76462E-04
 -1         4 9.63283E-03 1.10841E-02 1.43192E-02-1.25789E-05-4.93248E-05 6.00462E-06
 -1         5-8.85629E-03-9.39218E-03-5.72960E-03 7.03211E-04-2.67852E-05-6.99406E-04
 -1         6-9.06092E-03-8.51081E-03-3.79874E-03 1.12395E-03-1.35547E-04-5.46351E-04
 -1         7-9.60880E-03-7.59085E-03-5.44405E-03 4.40947E-04-2.98814E-05-1.04319E-03
 -1         8-1.03195E-02-7.69132E-03-3.81079E-03-9.12939E-05-2.30653E-05 2.05716E-05
 -1         9 6.26050E-03 4.65379E-03 7.81468E-03 4.09421E-05 7.40304E-05-1.14616E-05
 -1        10 3.92680E-03 4.72155E-03 7.92269E-03-2.36590E-05 1.84156E-04 1.00544E-04
 -1        11 6.80392E-03 4.96914E-03 8.74722E-03 1.65890E-04 1.64889E-04-1.49259E-04
 -1        12 5.93966E-03 4.39594E-03 8.87261E-03 2.08200E-05-2.41072E-05-1.61852E-04
 -1        13-9.69647E-03-8.44137E-03-3.85055E-03 3.99459E-04-2.95081E-04-2.44386E-04
 -1        14-7.01744E-04-1.23547E-03 1.97298E-03 1.15903E-03 1.86775E-04 1.90688E-05
 -1        15 8.62198E-03 8.09121E-03 1.10621E-02-7.09856E-04 1.38317E-04-4.60779E-05
 -1        16 1.01281E-02 1.06932E-02 1.43736E-02-2.49799E-04-1.79444E-04-3.40734E-05
 -1        17-2.62552E-03-1.34578E-03 2.23039E-03 3.74360E-05 9.29634E-05 4.82512E-04
 -1        18 7.31716E-03 7.91816E-03 1.11778E-02-1.40350E-04 8.26203E-05-2.92126E-04
 -1        19-9.70738E-03-8.41066E-03-5.69550E-03 7.69627E-04-7.34492E-05-9.50870E-04
 -1        20 4.88310E-04-2.01984E-03 1.63477E-03 4.59665E-04 1.50141E-04-2.96184E-04
 -1        21 8.95702E-03 7.65928E-03 1.10108E-02-5.83991E-04 1.50982E-04 4.97389E-04
 -1        22 1.01799E-02 1.09050E-02 1.34745E-02-3.99165E-04-1.08156E-04 3.32069E-04
 -1        23-6.17946E-04-1.69104E-03 1.89904E-03-4.52940E-05 1.10691E-04-7.14756E-04
 -1        24 8.58117E-03 7.73812E-03 1.11765E-02 6.62220E-05 3.64427E-05 3.22966E-04
 -1        25 1.02057E-02 1.04255E-02 1.40260E-02-3.71592E-04-1.11413E-04 4.80216E-04
 -1        26-9.59194E-03-9.34741E-03-4.71040E-03 1.01177E-03-3.58418E-05-9.13361E-04
 -1        27 9.76679E-03 1.11840E-02 1.38274E-02 2.53082E-05-4.36499E-06 4.51724E-04
 -1        28-1.01279E-02-7.68151E-03-4.76587E-03 1.23896E-04 4.40238E-05-7.68739E-04
 -1        29-2.10148E-03-1.45731E-03 2.06375E-03 5.37933E-04 1.32339E-04 1.73927E-04
 -1        30 4.75586E-03 4.51873E-03 7.90543E-03-2.35127E-05 6.29962E-05 4.84264E-05
 -1        31 7.40606E-03 7.92271E-03 1.11529E-02-2.51085E-04 1.10562E-04-8.80145E-05
 -1        32-5.74870E-04-1.20453E-03 1.75575E-03 7.15268E-04 1.42810E-04-7.27514E-04
 -1        33 8.72240E-03 7.93151E-03 1.11833E-02-4.62547E-04 1.31945E-04 4.28952E-04
 -1        34 6.07244E-03 4.64247E-03 8.80626E-03 1.54504E-04 1.16286E-05-2.08127E-04
 -1        35-7.50427E-04-1.68418E-03 2.55020E-03 9.73835E-04 4.50206E-05-8.13940E-04
 -1        36 8.52690E-03 7.91716E-03 1.14349E-02-5.28843E-04 4.11038E-05 5.50626E-04
 -1        37 6.32565E-03 4.63172E-03 8.29413E-03 1.24883E-04-1.64955E-05-1.94274E-04
 -1        38-2.04905E-03-1.45592E-03 2.60557E-03-9.12453E-05 6.07597E-05-3.96150E-04
 -1        39 7.71680E-03 7.80775E-03 1.15737E-02 6.29128E-05 3.98012E-05 2.87262E-04
 -1        40 4.70710E-03 4.33784E-03 8.27024E-03 7.46279E-08-6.71662E-05-8.88426E-05
 -1        41 9.75066E-03 1.07551E-02 1.38956E-02-2.49826E-04-1.40150E-04 2.94378E-04
 -1        42-1.02146E-02-8.27626E-03-4.61357E-03 9.19044E-04-1.58688E-04-1.01910E-03
 -1        43 4.84781E-03 4.81808E-03 8.31724E-03 1.12205E-04 9.93561E-05-1.08071E-04
 -1        44-1.79401E-03-1.29744E-03 2.51337E-03 5.95225E-04 9.59412E-05-6.10037E-04
 -1        45 8.02707E-03 8.00928E-03 1.14666E-02-3.83296E-04 7.59233E-05 3.84863E-04
 -3
    1PSTEP                        20           5           1          
  100CL  105 5.000000000          45                     0    5           1
 -4  ERROR       1    1
 -5  STR(%)      1    1    0    0
 -1         1 8.99953E+00
 -1         2 2.48083E+01
 -1         3 2.03230E+01
 -1         4 2.48083E+01
 -1         5 1.69361E+01
 -1         6 5.02513E+01
 -1         7 1.69361E+01
 -1         8 2.88072E+01
 -1         9 5.02513E+01
 -1        10 5.02513E+01
 -1        11 5.02513E+01
 -1        12 2.03230E+01
 -1        13 3.95292E+01
 -1        14 5.02513E+01
 -1        15 3.75298E+01
 -1        16 2.48083E+01
 -1        17 3.95292E+01
 -1        18 3.75298E+01
 -1        19 1.69361E+01
 -1        20 3.35937E+01
 -1        21 2.96254E+01
 -1        22 1.46613E+01
 -1        23 1.86296E+01
 -1        24 2.03230E+01
 -1        25 1.69039E+01
 -1        26 3.35937E+01
 -1        27 2.25657E+01
 -1        28 2.28716E+01
 -1        29 5.02513E+01
 -1        30 5.02513E+01
 -1        31 3.75298E+01
 -1        32 3.35937E+01
 -1        33 3.52872E+01
 -1        34 3.52872E+01
 -1        35 5.02513E+01
 -1        36 3.75298E+01
 -1        37 5.02513E+01
 -1        38 2.45651E+01
 -1        39 2.25657E+01
 -1        40 3.52872E+01
 -1        41 1.69039E+01
 -1        42 3.35937E+01
 -1        43 5.02513E+01
 -1        44 3.95292E+01
 -1        45 3.75298E+01
 -3
    1PSTEP                        21           6           1          
  100CL  106 6.000000000          45                     0    6           1
 -4  DISP        4    1
 -5  D1          1    2    1    0
 -5  D2          1    2    2    0
 -5  D3          1    2    3    0
 -5  ALL         1    2    0    0    1ALL
 -1         1-4.27560E+00 5.06851E+00-6.60749E+00
 -1         2-1.94584E+00 4.95147E+00 0.00000E+00
 -1         3-1.88565E+00 0.00000E+00-6.49824E+00
 -1         4 0.00000E+00 0.00000E+00 0.00000E+00
 -1         5-6.78885E+00-6.32880E+00 4.53484E+00
 -1         6-3.64596E+00-6.35649E+00 0.00000E+00
 -1         7-3.58697E+00 0.00000E+00 4.57684E+00
 -1         8 7.42257E-02 0.00000E+00 0.00000E+00
 -1         9-5.57393E+00 1.16319E+00 0.00000E+00
 -1        10-2.90220E+00 0.00000E+00 0.00000E+00
 -1        11-8.08362E+00 1.23332E+00-2.99331E+00
 -1        12-5.48204E+00 0.00000E+00-2.98273E+00
 -1        13-9.04564E-01-3.12764E+00 0.00000E+00
 -1        14-5.64205E+00-2.26607E+00 0.00000E+00
 -1        15-4.15105E+00 3.28593E+00 0.00000E+00
 -1        16-5.35781E-01 2.50281E+00 0.00000E+00
 -1        17-2.41294E+00 0.00000E+00 0.00000E+00
 -1        18-1.91813E+00 0.00000E+00 0.00000E+00
 -1        19-4.11797E+00-3.03372E+00 4.54553E+00
 -1        20-8.76122E+00-2.37938E+00 5.83976E-01
 -1        21-6.41572E+00 3.16187E+00-4.82373E+00
 -1        22-2.56343E+00 2.58057E+00-6.54848E+00
 -1        23-5.64455E+00 0.00000E+00 4.99451E-01
 -1        24-4.03447E+00 0.00000E+00-4.92672E+00
 -1        25-2.65645E+00 5.00377E+00-3.35828E+00
 -1        26-4.11352E+00-6.34159E+00 2.13519E+00
 -1        27-5.60056E-01 0.00000E+00-3.29027E+00
 -1        28-7.96084E-01 0.00000E+00 2.21245E+00
 -1        29-3.19498E+00-1.13791E+00 0.00000E+00
 -1        30-3.56263E+00 5.62948E-01 0.00000E+00
 -1        31-2.53437E+00 1.63703E+00 0.00000E+00
 -1        32-6.31891E+00-1.19363E+00 5.59837E-01
 -1        33-4.65291E+00 1.60156E+00-4.90221E+00
 -1        34-6.12558E+00 5.82548E-01-2.99141E+00
 -1        35-6.27621E+00-2.32764E+00 2.81639E-01
 -1        36-4.75419E+00 3.24576E+00-2.44113E+00
 -1        37-6.19608E+00 1.16070E+00-1.43134E+00
 -1        38-3.21890E+00 0.00000E+00 2.09081E-01
 -1        39-2.48329E+00 0.00000E+00-2.47641E+00
 -1        40-3.56376E+00 0.00000E+00-1.42414E+00
 -1        41-1.13238E+00 2.57579E+00-3.35550E+00
 -1        42-1.54131E+00-3.05754E+00 2.15400E+00
 -1        43-4.22023E+00 5.66034E-01-1.45647E+00
 -1        44-3.92458E+00-1.13159E+00 2.42724E-01
 -1        45-3.10332E+00 1.62096E+00-2.44959E+00
 -3
    1PSTEP                        22           6           1          
  100CL  106 6.000000000          45                     0    6           1
 -4  STRESS      6    1
 -5  SXX         1    4    1    1
 -5  SYY         1    4    2    2
 -5  SZZ         1    4    3    3
 -5  SXY         1    4    1    2
 -5  SYZ         1    4    2    3
 -5  SZX         1    4    3    1
 -1         1 7.27054E-01 8.18270E-01 7.28161E-01-6.08309E-01-1.37467E-01 5.37096E-01
 -1         2 5.62906E-01 7.43126E-01 1.43052E+00-6.17933E-01-6.43467E-02 1.97148E-01
 -1         3 5.13374E-01 2.08159E+00 3.87021E-01-1.33131E-01 2.37952E-02 6.29377E-01
 -1         4-1.87449E+00 1.23041E+00 1.40572E+00-8.37820E-02-5.46347E-02 8.42940E-02
 -1         5 3.90224E-01 2.15866E-01 1.57468E-01 2.23977E-01-7.67063E-03-1.65461E-01
 -1         6 2.29189E-01 6.51212E-01 1.34994E+00 4.01691E-01-6.57187E-02-1.51813E-01
 -1         7-2.11337E-01 1.56952E+00 2.81249E-01 1.22537E-01-3.88204E-02-2.95478E-01
 -1         8-1.15828E+00 1.12778E+00 1.13994E+00-1.02538E-01-1.61209E-02 1.11363E-01
 -1         9 1.76436E+00-5.12341E-01-1.10848E+00 1.26913E-01 4.31257E-02-4.18746E-02
 -1        10-2.45975E+00-1.45565E+00-1.94924E+00 2.06578E-02 1.26278E-01 3.12894E-02
 -1        11 1.48719E+00-9.24866E-01-7.84404E-01 1.18328E-01 1.16766E-01-1.22080E-01
 -1        12 6.36684E-01-1.34246E+00-2.98213E-01 3.55279E-02-1.15634E-02-1.86479E-01
 -1        13-1.27844E-01 8.62501E-01 1.39525E+00 1.10667E-01-1.16116E-01-2.22572E-02
 -1        14 9.97223E-01 3.09386E-01-6.85133E-02 5.87387E-01 8.23828E-02-1.58938E-02
 -1        15 1.04533E+00 1.40925E-01-7.11475E-01-6.52562E-01 1.37746E-01-5.03686E-02
 -1        16-2.26638E-01 1.03518E+00 2.20481E+00-3.63507E-01-1.98876E-01 4.44690E-02
 -1        17-1.40976E+00-9.42276E-02-2.52132E-01 7.79817E-03 5.23651E-02 2.43181E-01
 -1        18-1.61216E+00-6.16915E-01-7.86258E-01-1.34237E-01 7.70227E-02-2.76085E-01
 -1        19-2.55012E-01 9.73106E-01 1.86210E-01 2.46468E-01-5.14325E-02-2.58622E-01
 -1        20 1.85295E+00-3.69490E-01-3.23867E-01 2.89387E-01 9.97794E-02-1.87876E-01
 -1        21 1.70293E+00-8.82757E-01-9.88852E-01-5.29025E-01 1.48519E-01 3.95862E-01
 -1        22 4.26144E-01 2.01357E+00 7.76811E-01-5.57395E-01-1.01892E-01 4.69686E-01
 -1        23 8.31060E-01-9.46856E-02-1.20272E-01-8.43763E-04 3.56994E-02-3.36320E-01
 -1        24 1.14091E+00-3.99239E-01-4.28015E-01 6.32796E-02 4.76889E-02 2.76066E-01
 -1        25 5.80129E-01 9.50392E-01 2.01900E+00-5.35626E-01-1.08155E-01 6.42754E-01
 -1        26-2.80995E-02 2.82879E-01 8.48029E-01 3.35725E-01-3.17114E-02-2.48603E-01
 -1        27-1.00161E+00 1.99520E+00 8.60760E-01-4.88083E-02 8.08196E-03 5.87028E-01
 -1        28-7.00865E-01 1.39275E+00 6.79790E-01-8.18072E-03 1.75805E-03-1.78611E-01
 -1        29-9.60328E-01-1.88114E-01-2.91386E-01 2.17034E-01 7.80231E-02 9.79069E-02
 -1        30-7.39971E-01-1.14966E+00-1.42624E+00 1.05129E-01 3.87581E-02 1.46981E-02
 -1        31-1.21462E+00-5.28111E-01-8.67808E-01-2.78518E-01 9.25084E-02-6.01796E-02
 -1        32 9.08971E-01 3.25648E-01-2.42891E-01 4.04821E-01 6.13595E-02-3.68226E-01
 -1        33 1.40716E+00-2.57556E-02-3.78252E-01-3.86115E-01 1.34567E-01 3.68328E-01
 -1        34 8.80928E-01-9.08279E-01-2.84838E-01 6.60134E-02 6.69126E-03-2.08011E-01
 -1        35 8.88023E-01-6.17959E-02 4.30378E-01 5.15396E-01 1.24899E-02-4.30361E-01
 -1        36 1.02603E+00-9.64443E-02-1.61187E-02-4.82032E-01 5.14343E-02 4.34983E-01
 -1        37 1.93079E+00-3.95396E-01-3.81134E-01 1.78658E-01-1.91060E-02-1.02900E-01
 -1        38-4.63744E-01-2.34278E-02 3.64464E-01-5.14453E-02 1.66916E-02-2.19161E-01
 -1        39-9.06764E-01-5.89412E-01-3.52923E-02 5.76981E-02 5.13912E-02 2.11952E-01
 -1        40-8.58794E-01-1.34878E+00-9.37630E-01 8.27751E-03-3.89461E-02-6.02732E-02
 -1        41-6.73539E-01 1.57173E+00 1.60145E+00-3.83314E-01-1.51183E-01 4.08517E-01
 -1        42-3.95242E-01 1.13967E+00 9.42355E-01 2.94438E-01-9.03328E-02-2.85417E-01
 -1        43-8.55741E-01-9.11552E-01-1.09087E+00 1.01349E-01 6.26270E-02-3.39776E-02
 -1        44-2.02617E-01 2.28473E-01 3.08473E-01 3.54513E-01 3.10134E-02-3.41038E-01
 -1        45-2.04848E-01-7.51268E-02-1.79485E-02-3.06083E-01 7.70874E-02 2.66841E-01
 -3
    1PSTEP                        23           6           1          
  100CL  106 6.000000000          45                     0    6           1
 -4  TOSTRAIN    6    1
 -5  EXX         1    4    1    1
 -5  EYY         1    4    2    2
 -5  EZZ         1    4    3    3
 -5  EXY         1    4    1    2
 -5  EYZ         1    4    2    3
 -5  EZX         1    4    3    1
 -1         1 9.52389E-03 9.64365E-03 1.26629E-02-5.05619E-04-1.49480E-04 4.64750E-04
 -1         2 9.93170E-03 1.00791E-02 1.35786E-02-5.43613E-04-7.32767E-05 1.21494E-04
 -1         3 9.56787E-03 1.04266E-02 1.26671E-02-5.61579E-05 8.47948E-06 5.40234E-04
 -1         4 8.73283E-03 1.03420E-02 1.35472E-02-1.65584E-05-5.63077E-05 1.00514E-05
 -1         5-1.31630E-02-1.37029E-02-1.01274E-02 7.37463E-04-2.42256E-05-7.00322E-04
 -1         6-1.33708E-02-1.28005E-02-8.14240E-03 1.19462E-03-1.48949E-04-5.66890E-04
 -1         7-1.39817E-02-1.17917E-02-9.86177E-03 4.62020E-04-4.41761E-05-1.06981E-03
 -1         8-1.47520E-02-1.19137E-02-8.16459E-03-1.09651E-04-2.60199E-05 4.82777E-05
 -1         9 4.26360E-03 2.47556E-03 5.46405E-03 7.50822E-05 8.01211E-05-2.11048E-05
 -1        10 1.68313E-03 2.54676E-03 5.58594E-03-2.02334E-05 2.02981E-04 1.04765E-04
 -1        11 4.82018E-03 2.81809E-03 6.46835E-03 2.00122E-04 1.80664E-04-1.85599E-04
 -1        12 3.87731E-03 2.19372E-03 6.61078E-03 2.74171E-05-2.41586E-05-2.03939E-04
 -1        13-1.40605E-02-1.27129E-02-8.19808E-03 4.21152E-04-3.10363E-04-2.38373E-04
 -1        14-3.84823E-03-4.43804E-03-1.38784E-03 1.25964E-03 1.98261E-04 2.92271E-06
 -1        15 7.27066E-03 6.67016E-03 9.50319E-03-7.88374E-04 1.55460E-04-5.91246E-05
 -1        16 9.27905E-03 9.90287E-03 1.36081E-02-2.81481E-04-2.04052E-04-3.22874E-05
 -1        17-5.94094E-03-4.53902E-03-1.11844E-03 3.79101E-05 1.01508E-04 5.15835E-04
 -1        18 5.81598E-03 6.46882E-03 9.63709E-03-1.54800E-04 9.35431E-05-3.29785E-04
 -1        19-1.40754E-02-1.26575E-02-1.00950E-02 8.06983E-04-8.75394E-05-9.67179E-04
 -1        20-2.58428E-03-5.26562E-03-1.73820E-03 5.22512E-04 1.74502E-04-3.35319E-04
 -1        21 7.63123E-03 6.18201E-03 9.44894E-03-6.39158E-04 1.72053E-04 5.32184E-04
 -1        22 9.32092E-03 1.01369E-02 1.26072E-02-4.49977E-04-1.18807E-04 3.75222E-04
 -1        23-3.78253E-03-4.91094E-03-1.46534E-03-3.42107E-05 1.13985E-04-7.72593E-04
 -1        24 7.20713E-03 6.26974E-03 9.63655E-03 7.76387E-05 4.22492E-05 3.45343E-04
 -1        25 9.35404E-03 9.60353E-03 1.32149E-02-4.21303E-04-1.22604E-04 5.38528E-04
 -1        26-1.39228E-02-1.36588E-02-9.06963E-03 1.06361E-03-4.46828E-05-9.29636E-04
 -1        27 8.87821E-03 1.04559E-02 1.29964E-02 2.34714E-05-4.21254E-06 5.10174E-04
 -1        28-1.45330E-02-1.18976E-02-9.15366E-03 1.21764E-04 4.08705E-05-7.74116E-04
 -1        29-5.37168E-03-4.67062E-03-1.28729E-03 5.78151E-04 1.45390E-04 1.82134E-04
 -1        30 2.60298E-03 2.32637E-03 5.56458E-03 1.10307E-06 6.89525E-05 4.98040E-05
 -1        31 5.91376E-03 6.48034E-03 9.60372E-03-2.79932E-04 1.23984E-04-1.00341E-04
 -1        32-3.73144E-03-4.38651E-03-1.61677E-03 7.92605E-04 1.49280E-04-7.94031E-04
 -1        33 7.36801E-03 6.48452E-03 9.64574E-03-5.08299E-04 1.49569E-04 4.63756E-04
 -1        34 4.01885E-03 2.46664E-03 6.53903E-03 1.70898E-04 1.36184E-05-2.54447E-04
 -1        35-3.89804E-03-4.91374E-03-7.71645E-04 1.07098E-03 4.41918E-05-8.87681E-04
 -1        36 7.15970E-03 6.47648E-03 9.91104E-03-5.83623E-04 4.87451E-05 5.98869E-04
 -1        37 4.32567E-03 2.45322E-03 5.98657E-03 1.67198E-04-1.98637E-05-2.11679E-04
 -1        38-5.30254E-03-4.66279E-03-7.12519E-04-9.68567E-05 6.04996E-05-4.32629E-04
 -1        39 6.25266E-03 6.34733E-03 1.00701E-02 7.44439E-05 4.68461E-05 3.05437E-04
 -1        40 2.53491E-03 2.12767E-03 5.96540E-03 1.56399E-06-7.14628E-05-1.04499E-04
 -1        41 8.84579E-03 9.96900E-03 1.30701E-02-2.84923E-04-1.56367E-04 3.30439E-04
 -1        42-1.45872E-02-1.25229E-02-8.97849E-03 9.63744E-04-1.82548E-04-1.04297E-03
 -1        43 2.69246E-03 2.65512E-03 6.01307E-03 1.33520E-04 1.07492E-04-1.18320E-04
 -1        44-5.03560E-03-4.48580E-03-8.11411E-04 6.57543E-04 9.74943E-05-6.66304E-04
 -1        45 6.60133E-03 6.57253E-03 9.95198E-03-4.20647E-04 8.68860E-05 4.12143E-04
 -3
    1PSTEP                        24           6           1          
  100CL  106 6.000000000          45                     0    6           1
 -4  ERROR       1    1
 -5  STR(%)      1    1    0    0
 -1         1 9.15170E+00
 -1         2 2.45048E+01
 -1         3 1.97589E+01
 -1         4 2.45048E+01
 -1         5 1.79939E+01
 -1         6 4.96210E+01
 -1         7 1.79939E+01
 -1         8 2.94933E+01
 -1         9 4.96210E+01
 -1        10 4.96210E+01
 -1        11 4.96210E+01
 -1        12 1.97589E+01
 -1        13 3.95572E+01
 -1        14 4.96210E+01
 -1        15 3.70629E+01
 -1        16 2.45048E+01
 -1        17 3.95572E+01
 -1        18 3.70629E+01
 -1        19 1.79939E+01
 -1        20 3.38075E+01
 -1        21 2.93864E+01
 -1        22 1.44553E+01
 -1        23 1.88764E+01
 -1        24 1.97589E+01
 -1        25 1.68282E+01
 -1        26 3.38075E+01
 -1        27 2.21318E+01
 -1        28 2.37436E+01
 -1        29 4.96210E+01
 -1        30 4.96210E+01
 -1        31 3.70629E+01
 -1        32 3.38075E+01
 -1        33 3.46900E+01
 -1        34 3.46900E+01
 -1        35 4.96210E+01
 -1        36 3.70629E+01
 -1        37 4.96210E+01
 -1        38 2.46261E+01
 -1        39 2.21318E+01
 -1        40 3.46900E+01
 -1        41 1.68282E+01
 -1        42 3.38075E+01
 -1        43 4.96210E+01
 -1        44 3.95572E+01
 -1        45 3.70629E+01
 -3
    1PSTEP                        25           7           1          
  100CL  107 7.000000000          45                     0    7           1
 -4  DISP        4    1
 -5  D1          1    2    1    0
 -5  D2          1    2    2    0
 -5  D3          1    2    3    0
 -5  ALL         1    2    0    0    1ALL
 -1         1-4.98634E+00 4.67987E+00-6.19555E+00
 -1         2-2.27679E+00 4.55502E+00 0.00000E+00
 -1         3-2.23159E+00 0.00000E+00-6.07962E+00
 -1         4 0.00000E+00 0.00000E+00 0.00000E+00
 -1         5-5.34865E+00-8.26062E+00 6.46718E+00
 -1         6-1.81263E+00-8.30366E+00 0.00000E+00
 -1         7-1.73993E+00 0.00000E+00 6.52659E+00
 -1         8 2.33892E+00 0.00000E+00 0.00000E+00
 -1         9-5.23543E+00 1.00863E-01 0.00000E+00
 -1        10-2.17762E+00 0.00000E+00 0.00000E+00
 -1        11-8.13066E+00 1.77766E-01-1.88092E+00
 -1        12-5.14506E+00 0.00000E+00-1.87308E+00
 -1        13 1.24720E+00-4.09797E+00 0.00000E+00
 -1        14-4.67859E+00-3.77147E+00 0.00000E+00
 -1        15-4.22457E+00 2.58130E+00 0.00000E+00
 -1        16-6.22469E-01 2.30621E+00 0.00000E+00
 -1        17-1.03339E+00 0.00000E+00 0.00000E+00
 -1        18-1.63695E+00 0.00000E+00 0.00000E+00
 -1        19-2.36751E+00-3.99732E+00 6.48118E+00
 -1        20-8.18266E+00-3.88350E+00 2.12804E+00
 -1        21-6.85614E+00 2.44543E+00-4.06926E+00
 -1        22-3.00859E+00 2.39024E+00-6.13296E+00
 -1        23-4.67306E+00 0.00000E+00 2.04400E+00
 -1        24-4.11358E+00 0.00000E+00-4.18312E+00
 -1        25-3.09389E+00 4.61038E+00-3.15610E+00
 -1        26-2.38061E+00-8.27686E+00 3.10362E+00
 -1        27-6.51618E-01 0.00000E+00-3.08316E+00
 -1        28 1.35825E+00 0.00000E+00 3.18574E+00
 -1        29-1.91683E+00-1.88699E+00 0.00000E+00
 -1        30-2.93177E+00 3.05614E-02 0.00000E+00
 -1        31-2.34479E+00 1.28304E+00 0.00000E+00
 -1        32-5.43624E+00-1.94416E+00 2.10284E+00
 -1        33-4.82453E+00 1.24477E+00-4.15575E+00
 -1        34-5.88278E+00 5.24817E-02-1.88066E+00
 -1        35-5.40056E+00-3.83144E+00 1.05189E+00
 -1        36-4.92010E+00 2.53705E+00-2.06514E+00
 -1        37-5.95094E+00 9.92558E-02-8.72067E-01
 -1        38-1.94063E+00 0.00000E+00 9.81710E-01
 -1        39-2.29322E+00 0.00000E+00-2.10557E+00
 -1        40-2.93454E+00 0.00000E+00-8.66354E-01
 -1        41-1.31665E+00 2.38525E+00-3.15351E+00
 -1        42 5.04472E-01-4.02362E+00 3.12461E+00
 -1        43-3.68784E+00 3.42038E-02-8.98958E-01
 -1        44-2.74460E+00-1.88192E+00 1.01330E+00
 -1        45-3.00556E+00 1.26563E+00-2.07510E+00
 -3
    1PSTEP                        26           7           1          
  100CL  107 7.000000000          45                     0    7           1
 -4  STRESS      6    1
 -5  SXX         1    4    1    1
 -5  SYY         1    4    2    2
 -5  SZZ         1    4    3    3
 -5  SXY         1    4    1    2
 -5  SYZ         1    4    2    3
 -5  SZX         1    4    3    1
 -1         1 6.47515E-01 7.60679E-01 6.56681E-01-5.59309E-01-1.17767E-01 4.77984E-01
 -1         2 5.26144E-01 6.92632E-01 1.23425E+00-5.78721E-01-6.19999E-02 1.81402E-01
 -1         3 4.85739E-01 1.93240E+00 3.54263E-01-1.29580E-01 2.28069E-02 5.86987E-01
 -1         4-1.65514E+00 1.11252E+00 1.22453E+00-8.06594E-02-5.26041E-02 8.25761E-02
 -1         5 2.28020E-01 1.58206E-01 6.85722E-02 1.58687E-01-1.68977E-04-6.88733E-02
 -1         6 2.37658E-01 5.31591E-01 1.03478E+00 3.07582E-01-5.81555E-02-9.99441E-02
 -1         7-2.39584E-01 1.26439E+00 1.64881E-01 8.35193E-02-4.79913E-02-1.73238E-01
 -1         8-8.97416E-01 1.00140E+00 9.25873E-01-9.89352E-02-1.43152E-02 1.22673E-01
 -1         9 1.60016E+00-4.59242E-01-9.21090E-01 1.65023E-01 3.46070E-02-5.23420E-02
 -1        10-2.09553E+00-1.28362E+00-1.62540E+00 2.74091E-02 1.13201E-01 1.56673E-02
 -1        11 1.24840E+00-8.09390E-01-6.34918E-01 1.33143E-01 1.01675E-01-1.44127E-01
 -1        12 4.88190E-01-1.19604E+00-2.62127E-01 3.92577E-02-6.68877E-03-2.07123E-01
 -1        13-1.17938E-01 6.95866E-01 9.94577E-01 8.01916E-02-8.42661E-02 1.02360E-02
 -1        14 9.15421E-01 3.13628E-01 9.00541E-02 5.02333E-01 6.14027E-02-4.32167E-02
 -1        15 9.58403E-01 1.08374E-01-6.85829E-01-5.85781E-01 1.25614E-01-6.43480E-02
 -1        16-1.63739E-01 9.49299E-01 1.97203E+00-3.35211E-01-1.90242E-01 5.57057E-02
 -1        17-1.13085E+00 3.88733E-03-1.17271E-01 2.46315E-03 4.42275E-02 1.88737E-01
 -1        18-1.42347E+00-6.06015E-01-7.18729E-01-1.16359E-01 7.25272E-02-2.60140E-01
 -1        19-3.04156E-01 7.49073E-01 7.52406E-02 1.73765E-01-5.36613E-02-1.41203E-01
 -1        20 1.50677E+00-2.37857E-01-1.42147E-01 2.80891E-01 9.90956E-02-1.81307E-01
 -1        21 1.46501E+00-8.55929E-01-9.24806E-01-4.50866E-01 1.41411E-01 3.04151E-01
 -1        22 3.99241E-01 1.86796E+00 7.28931E-01-5.17987E-01-8.65745E-02 4.38251E-01
 -1        23 6.46588E-01-1.71928E-02-3.95157E-02 2.07042E-02 2.11611E-02-2.83770E-01
 -1        24 9.59499E-01-4.02473E-01-4.03901E-01 6.59754E-02 4.58456E-02 2.18080E-01
 -1        25 5.62205E-01 9.12212E-01 1.80957E+00-5.07835E-01-9.16896E-02 5.85909E-01
 -1        26-4.49621E-02 1.97202E-01 5.35419E-01 2.43202E-01-3.34940E-02-1.34959E-01
 -1        27-8.51433E-01 1.85410E+00 7.47931E-01-5.65085E-02 8.31835E-03 5.42614E-01
 -1        28-5.80590E-01 1.13503E+00 4.99379E-01-2.17436E-02-6.86503E-03-7.60203E-02
 -1        29-7.46355E-01-1.05051E-01-1.17068E-01 1.75546E-01 6.64212E-02 6.87375E-02
 -1        30-5.92880E-01-1.01933E+00-1.19617E+00 1.38812E-01 3.29519E-02 5.13568E-03
 -1        31-1.07609E+00-4.99116E-01-8.20384E-01-2.52556E-01 8.31629E-02-6.15039E-02
 -1        32 7.19121E-01 3.37065E-01-1.08923E-01 3.64333E-01 4.22044E-02-3.19722E-01
 -1        33 1.20801E+00-6.77367E-02-3.49476E-01-3.31896E-01 1.25485E-01 3.00626E-01
 -1        34 6.85502E-01-8.13130E-01-2.45611E-01 5.87419E-02 6.45140E-03-2.25128E-01
 -1        35 7.77772E-01-3.07846E-03 4.39071E-01 4.56535E-01 1.91949E-03-3.65640E-01
 -1        36 9.10451E-01-1.06833E-01-8.65973E-02-4.24872E-01 5.09908E-02 3.59147E-01
 -1        37 1.69783E+00-3.59216E-01-3.17542E-01 2.08155E-01-2.03642E-02-8.54338E-02
 -1        38-3.22531E-01 5.74750E-02 3.84602E-01-3.84750E-02 6.31609E-03-1.90331E-01
 -1        39-8.46059E-01-5.85456E-01-9.33203E-02 6.26640E-02 5.22734E-02 1.59681E-01
 -1        40-7.44186E-01-1.19892E+00-7.87135E-01 9.75019E-03-2.98277E-02-6.53803E-02
 -1        41-5.87274E-01 1.45939E+00 1.43518E+00-3.65638E-01-1.35807E-01 3.76295E-01
 -1        42-3.53042E-01 8.47260E-01 5.66413E-01 2.08939E-01-8.91444E-02-1.66047E-01
 -1        43-7.29813E-01-8.07058E-01-9.13165E-01 1.04662E-01 5.38674E-02-3.06982E-02
 -1        44-1.49501E-01 2.68538E-01 3.30088E-01 3.14185E-01 1.47277E-02-2.91642E-01
 -1        45-2.06508E-01-1.14050E-01-6.52705E-02-2.62047E-01 7.34307E-02 2.03798E-01
 -3
    1PSTEP                        27           7           1          
  100CL  107 7.000000000          45                     0    7           1
 -4  TOSTRAIN    6    1
 -5  EXX         1    4    1    1
 -5  EYY         1    4    2    2
 -5  EZZ         1    4    3    3
 -5  EXY         1    4    1    2
 -5  EYZ         1    4    2    3
 -5  EZX         1    4    3    1
 -1         1 8.68711E-03 8.82412E-03 1.18003E-02-5.49659E-04-1.58927E-04 4.99274E-04
 -1         2 9.15473E-03 9.31501E-03 1.27920E-02-5.98313E-04-8.02778E-05 1.34727E-04
 -1         3 8.75138E-03 9.68232E-03 1.18124E-02-6.57598E-05 9.96987E-06 5.94501E-04
 -1         4 7.86206E-03 9.58807E-03 1.27572E-02-2.12829E-05-6.24497E-05 1.63254E-05
 -1         5-1.70738E-02-1.75850E-02-1.39740E-02 7.36118E-04-1.85215E-05-6.54334E-04
 -1         6-1.72754E-02-1.67146E-02-1.20480E-02 1.21282E-03-1.58213E-04-5.56986E-04
 -1         7-1.79316E-02-1.56492E-02-1.37551E-02 4.59704E-04-6.19075E-05-1.03466E-03
 -1         8-1.87330E-02-1.57936E-02-1.20833E-02-1.27310E-04-2.85952E-05 8.20943E-05
 -1         9 2.28000E-03 3.60694E-04 3.21468E-03 1.17766E-04 8.33315E-05-3.31991E-05
 -1        10-4.66035E-04 4.31248E-04 3.34809E-03-1.42759E-05 2.15711E-04 1.02921E-04
 -1        11 2.81564E-03 7.18474E-04 4.25178E-03 2.33056E-04 1.90264E-04-2.22435E-04
 -1        12 1.82864E-03 6.43326E-05 4.40780E-03 3.47296E-05-2.25066E-05-2.48049E-04
 -1        13-1.79935E-02-1.66072E-02-1.21053E-02 4.23487E-04-3.10916E-04-2.14699E-04
 -1        14-6.83192E-03-7.45841E-03-4.48112E-03 1.31472E-03 2.00067E-04-2.02542E-05
 -1        15 5.92912E-03 5.27251E-03 7.98695E-03-8.45986E-04 1.68607E-04-7.31571E-05
 -1        16 8.44369E-03 9.10998E-03 1.28231E-02-3.07774E-04-2.25229E-04-2.65615E-05
 -1        17-9.01499E-03-7.53939E-03-4.21336E-03 3.61329E-05 1.06383E-04 5.25988E-04
 -1        18 4.36393E-03 5.04535E-03 8.13790E-03-1.64761E-04 1.02578E-04-3.60130E-04
 -1        19-1.80108E-02-1.65211E-02-1.39461E-02 8.04610E-04-1.01450E-04-9.24726E-04
 -1        20-5.55277E-03-8.28918E-03-4.82437E-03 5.75132E-04 1.96482E-04-3.67166E-04
 -1        21 6.30116E-03 4.73874E-03 7.93205E-03-6.74247E-04 1.89663E-04 5.45544E-04
 -1        22 8.47125E-03 9.35967E-03 1.17443E-02-4.92500E-04-1.25911E-04 4.12071E-04
 -1        23-6.79659E-03-7.92218E-03-4.55935E-03-1.62087E-05 1.10331E-04-8.00527E-04
 -1        24 5.83855E-03 4.83342E-03 8.13675E-03 8.82552E-05 4.74185E-05 3.54093E-04
 -1        25 8.51239E-03 8.78565E-03 1.23910E-02-4.64644E-04-1.30023E-04 5.85445E-04
 -1        26-1.78161E-02-1.75448E-02-1.29343E-02 1.06457E-03-5.36291E-05-8.88774E-04
 -1        27 8.01508E-03 9.71407E-03 1.21592E-02 1.89182E-05-3.95778E-06 5.59129E-04
 -1        28-1.84900E-02-1.57694E-02-1.30531E-02 1.10595E-04 3.32099E-05-7.29638E-04
 -1        29-8.42209E-03-7.69035E-03-4.37353E-03 5.95055E-04 1.53068E-04 1.80380E-04
 -1        30 5.16177E-04 2.01732E-04 3.32224E-03 3.54837E-05 7.28318E-05 4.79350E-05
 -1        31 4.46815E-03 5.06541E-03 8.09451E-03-3.02443E-04 1.34048E-04-1.10765E-04
 -1        32-6.73872E-03-7.38044E-03-4.71101E-03 8.45741E-04 1.47480E-04-8.32389E-04
 -1        33 6.01555E-03 5.06420E-03 8.14912E-03-5.38183E-04 1.63884E-04 4.81587E-04
 -1        34 1.97248E-03 3.55542E-04 4.33361E-03 1.81168E-04 1.54333E-05-3.00778E-04
 -1        35-6.88110E-03-7.93880E-03-3.85228E-03 1.13349E-03 3.94837E-05-9.28924E-04
 -1        36 5.80310E-03 5.06438E-03 8.41668E-03-6.21885E-04 5.57986E-05 6.25963E-04
 -1        37 2.33295E-03 3.39694E-04 3.76180E-03 2.14428E-04-2.31202E-05-2.20359E-04
 -1        38-8.33579E-03-7.67324E-03-3.79251E-03-9.77787E-05 5.58384E-05-4.54094E-04
 -1        39 4.82122E-03 4.91688E-03 8.59324E-03 8.54883E-05 5.36075E-05 3.10811E-04
 -1        40 4.26515E-04-8.78336E-06 3.74612E-03 3.55584E-06-7.25412E-05-1.18633E-04
 -1        41 7.96209E-03 9.17750E-03 1.22359E-02-3.16284E-04-1.68657E-04 3.60635E-04
 -1        42-1.84946E-02-1.63953E-02-1.28575E-02 9.60851E-04-2.03752E-04-1.00524E-03
 -1        43 5.96204E-04 5.49245E-04 3.79144E-03 1.53381E-04 1.11671E-04-1.23805E-04
 -1        44-8.07118E-03-7.48227E-03-3.89368E-03 6.99017E-04 9.27411E-05-6.98910E-04
 -1        45 5.19953E-03 5.16018E-03 8.46802E-03-4.44745E-04 9.62263E-05 4.22709E-04
 -3
    1PSTEP                        28           7           1          
  100CL  107 7.000000000          45                     0    7           1
 -4  ERROR       1    1
 -5  STR(%)      1    1    0    0
 -1         1 9.35207E+00
 -1         2 2.40870E+01
 -1         3 1.89620E+01
 -1         4 2.40870E+01
 -1         5 1.96320E+01
 -1         6 4.71216E+01
 -1         7 1.96320E+01
 -1         8 3.06293E+01
 -1         9 4.71216E+01
 -1        10 4.71216E+01
 -1        11 4.71216E+01
 -1        12 1.89620E+01
 -1        13 3.88755E+01
 -1        14 4.71216E+01
 -1        15 3.56043E+01
 -1        16 2.40870E+01
 -1        17 3.88755E+01
 -1        18 3.56043E+01
 -1        19 1.96320E+01
 -1        20 3.33768E+01
 -1        21 2.82368E+01
 -1        22 1.41570E+01
 -1        23 1.92970E+01
 -1        24 1.89620E+01
 -1        25 1.67195E+01
 -1        26 3.33768E+01
 -1        27 2.15245E+01
 -1        28 2.51307E+01
 -1        29 4.71216E+01
 -1        30 4.71216E+01
 -1        31 3.56043E+01
 -1        32 3.33768E+01
 -1        33 3.30418E+01
 -1        34 3.30418E+01
 -1        35 4.71216E+01
 -1        36 3.56043E+01
 -1        37 4.71216E+01
 -1        38 2.47957E+01
 -1        39 2.15245E+01
 -1        40 3.30418E+01
 -1        41 1.67195E+01
 -1        42 3.33768E+01
 -1        43 4.71216E+01
 -1        44 3.88755E+01
 -1        45 3.56043E+01
 -3
    1PSTEP                        29           8           1          
  100CL  108 8.000000000          45                     0    8           1
 -4  DISP        4    1
 -5  D1          1    2    1    0
 -5  D2          1    2    2    0
 -5  D3          1    2    3    0
 -5  ALL         1    2    0    0    1ALL
 -1         1-5.63477E+00 4.28621E+00-5.77684E+00
 -1         2-2.58706E+00 4.15709E+00 0.00000E+00
 -1         3-2.54815E+00 0.00000E+00-5.65762E+00
 -1         4 0.00000E+00 0.00000E+00 0.00000E+00
 -1         5-3.89641E+00-9.99786E+00 8.14852E+00
 -1         6-4.57562E-02-1.00594E+01 0.00000E+00
 -1         7 5.77495E-02 0.00000E+00 8.22865E+00
 -1         8 4.45639E+00 0.00000E+00 0.00000E+00
 -1         9-4.88098E+00-9.27289E-01 0.00000E+00
 -1        10-1.47816E+00 0.00000E+00 0.00000E+00
 -1        11-8.11262E+00-8.45139E-01-8.10260E-01
 -1        12-4.78110E+00 0.00000E+00-8.06579E-01
 -1        13 3.27289E+00-4.97405E+00 0.00000E+00
 -1        14-3.71968E+00-5.18079E+00 0.00000E+00
 -1        15-4.27770E+00 1.88903E+00 0.00000E+00
 -1        16-7.02744E-01 2.10804E+00 0.00000E+00
 -1        17 2.80911E-01 0.00000E+00 0.00000E+00
 -1        18-1.36333E+00 0.00000E+00 0.00000E+00
 -1        19-6.62881E-01-4.86927E+00 8.16629E+00
 -1        20-7.52841E+00-5.28506E+00 3.54102E+00
 -1        21-7.23398E+00 1.74435E+00-3.33389E+00
 -1        22-3.41463E+00 2.19636E+00-5.71253E+00
 -1        23-3.68753E+00 0.00000E+00 3.46208E+00
 -1        24-4.16371E+00 0.00000E+00-3.45654E+00
 -1        25-3.49736E+00 4.21380E+00-2.94901E+00
 -1        26-7.10975E-01-1.00179E+01 3.95363E+00
 -1        27-7.33098E-01 0.00000E+00-2.87303E+00
 -1        28 3.38619E+00 0.00000E+00 4.03832E+00
 -1        29-6.89214E-01-2.58671E+00 0.00000E+00
 -1        30-2.31530E+00-4.84172E-01 0.00000E+00
 -1        31-2.15378E+00 9.35007E-01 0.00000E+00
 -1        32-4.52668E+00-2.64270E+00 3.51573E+00
 -1        33-4.95828E+00 8.94953E-01-3.42673E+00
 -1        34-5.60327E+00-4.60217E-01-8.12279E-01
 -1        35-4.51417E+00-5.23529E+00 1.75653E+00
 -1        36-5.05345E+00 1.84164E+00-1.69748E+00
 -1        37-5.67691E+00-9.27647E-01-3.36029E-01
 -1        38-7.07519E-01 0.00000E+00 1.69307E+00
 -1        39-2.10011E+00 0.00000E+00-1.74292E+00
 -1        40-2.31606E+00 0.00000E+00-3.32667E-01
 -1        41-1.48444E+00 2.19133E+00-2.94684E+00
 -1        42 2.43446E+00-4.89760E+00 3.97651E+00
 -1        43-3.15662E+00-4.80034E-01-3.63973E-01
 -1        44-1.59805E+00-2.58337E+00 1.72030E+00
 -1        45-2.89569E+00 9.16745E-01-1.70902E+00
 -3
    1PSTEP                        30           8           1          
  100CL  108 8.000000000          45                     0    8           1
 -4  STRESS      6    1
 -5  SXX         1    4    1    1
 -5  SYY         1    4    2    2
 -5  SZZ         1    4    3    3
 -5  SXY         1    4    1    2
 -5  SYZ         1    4    2    3
 -5  SZX         1    4    3    1
 -1         1 5.51564E-01 6.89040E-01 5.71089E-01-4.98919E-01-9.41374E-02 4.07316E-01
 -1         2 4.79821E-01 6.29058E-01 9.98037E-01-5.29764E-01-5.88125E-02 1.62504E-01
 -1         3 4.52538E-01 1.74487E+00 3.14783E-01-1.24790E-01 2.14184E-02 5.35027E-01
 -1         4-1.39132E+00 9.66645E-01 1.00696E+00-7.70273E-02-4.98136E-02 8.07346E-02
 -1         5 3.74357E-02 8.93373E-02-3.48546E-02 8.08995E-02 8.59663E-03 4.35412E-02
 -1         6 2.43732E-01 3.88219E-01 6.62001E-01 1.94100E-01-4.94375E-02-3.76391E-02
 -1         7-2.69795E-01 8.96263E-01 2.78886E-02 3.59521E-02-5.87074E-02-2.91896E-02
 -1         8-5.83932E-01 8.47646E-01 6.73073E-01-9.43783E-02-1.22400E-02 1.34495E-01
 -1         9 1.39595E+00-3.94452E-01-6.98703E-01 2.08612E-01 2.45999E-02-6.41509E-02
 -1        10-1.65796E+00-1.07396E+00-1.23986E+00 3.57726E-02 9.72100E-02-2.18666E-03
 -1        11 9.61755E-01-6.68417E-01-4.57464E-01 1.50777E-01 8.34896E-02-1.69882E-01
 -1        12 3.14155E-01-1.01629E+00-2.18777E-01 4.32574E-02-1.02751E-03-2.31016E-01
 -1        13-1.04598E-01 4.95377E-01 5.22350E-01 4.30630E-02-4.69394E-02 4.78815E-02
 -1        14 8.12668E-01 3.17058E-01 2.76474E-01 3.99258E-01 3.58879E-02-7.38589E-02
 -1        15 8.49753E-01 6.89034E-02-6.54868E-01-5.04539E-01 1.10854E-01-7.94957E-02
 -1        16-8.99654E-02 8.43421E-01 1.69073E+00-3.00393E-01-1.78915E-01 6.85941E-02
 -1        17-7.96688E-01 1.20523E-01 4.29005E-02-3.61271E-03 3.44351E-02 1.23983E-01
 -1        18-1.19533E+00-5.91005E-01-6.38611E-01-9.50903E-02 6.68233E-02-2.39402E-01
 -1        19-3.58092E-01 4.79339E-01-5.41302E-02 8.67055E-02-5.58446E-02-3.58733E-03
 -1        20 1.09059E+00-8.12199E-02 7.07476E-02 2.68891E-01 9.72024E-02-1.72667E-01
 -1        21 1.17969E+00-8.19125E-01-8.45533E-01-3.56804E-01 1.32262E-01 1.96372E-01
 -1        22 3.66450E-01 1.68608E+00 6.69705E-01-4.68712E-01-6.83314E-02 3.99733E-01
 -1        23 4.26455E-01 7.56287E-02 5.46615E-02 4.50166E-02 3.68767E-03-2.20563E-01
 -1        24 7.45589E-01-4.04947E-01-3.73913E-01 6.82704E-02 4.32090E-02 1.49642E-01
 -1        25 5.37533E-01 8.62005E-01 1.55721E+00-4.72236E-01-7.19209E-02 5.16466E-01
 -1        26-6.56349E-02 9.51997E-02 1.66610E-01 1.32521E-01-3.51907E-02-1.15105E-03
 -1        27-6.71716E-01 1.67671E+00 6.13658E-01-6.53586E-02 8.52959E-03 4.88492E-01
 -1        28-4.34667E-01 8.24785E-01 2.85779E-01-3.82313E-02-1.72611E-02 4.39190E-02
 -1        29-4.93276E-01-5.99949E-03 8.89066E-02 1.25673E-01 5.18366E-02 3.49953E-02
 -1        30-4.19283E-01-8.60324E-01-9.22073E-01 1.77747E-01 2.60948E-02-5.57483E-03
 -1        31-9.08078E-01-4.62841E-01-7.62504E-01-2.20592E-01 7.18086E-02-6.16681E-02
 -1        32 4.92271E-01 3.47689E-01 4.81478E-02 3.14069E-01 1.93864E-02-2.60800E-01
 -1        33 9.70651E-01-1.16683E-01-3.14430E-01-2.65903E-01 1.14079E-01 2.20454E-01
 -1        34 4.55649E-01-6.96045E-01-1.98514E-01 5.09233E-02 6.11274E-03-2.44726E-01
 -1        35 6.41334E-01 6.66296E-02 4.46510E-01 3.84276E-01-1.05544E-02-2.87968E-01
 -1        36 7.69673E-01-1.18357E-01-1.68448E-01-3.55064E-01 5.00811E-02 2.68301E-01
 -1        37 1.41387E+00-3.14555E-01-2.42169E-01 2.41951E-01-2.15122E-02-6.65840E-02
 -1        38-1.54150E-01 1.53820E-01 4.07032E-01-2.33128E-02-5.66327E-03-1.56262E-01
 -1        39-7.70353E-01-5.78432E-01-1.60482E-01 6.74843E-02 5.28732E-02 9.80074E-02
 -1        40-6.04895E-01-1.01521E+00-6.07591E-01 1.13574E-02-1.91637E-02-7.18446E-02
 -1        41-4.83577E-01 1.31892E+00 1.23491E+00-3.42730E-01-1.17096E-01 3.37074E-01
 -1        42-3.01251E-01 4.96595E-01 1.23170E-01 1.06195E-01-8.69530E-02-2.48995E-02
 -1        43-5.78724E-01-6.79312E-01-7.01516E-01 1.09088E-01 4.33764E-02-2.75875E-02
 -1        44-8.51020E-02 3.14487E-01 3.54400E-01 2.65418E-01-4.17726E-03-2.32922E-01
 -1        45-2.07779E-01-1.59200E-01-1.20275E-01-2.08413E-01 6.86706E-02 1.29335E-01
 -3
    1PSTEP                        31           8           1          
  100CL  108 8.000000000          45                     0    8           1
 -4  TOSTRAIN    6    1
 -5  EXX         1    4    1    1
 -5  EYY         1    4    2    2
 -5  EZZ         1    4    3    3
 -5  EXY         1    4    1    2
 -5  EYZ         1    4    2    3
 -5  EZX         1    4    3    1
 -1         1 7.85365E-03 8.00596E-03 1.09395E-02-5.83094E-04-1.63641E-04 5.22420E-04
 -1         2 8.37751E-03 8.54768E-03 1.19856E-02-6.43254E-04-8.61883E-05 1.46410E-04
 -1         3 7.94188E-03 8.92411E-03 1.09614E-02-7.58086E-05 1.12440E-05 6.38970E-04
 -1         4 7.02190E-03 8.82137E-03 1.19481E-02-2.68555E-05-6.77008E-05 2.49165E-05
 -1         5-2.05823E-02-2.10328E-02-1.72620E-02 6.99151E-04-9.53377E-06-5.61245E-04
 -1         6-2.07697E-02-2.02481E-02-1.55080E-02 1.17875E-03-1.63592E-04-5.16674E-04
 -1         7-2.14528E-02-1.91571E-02-1.71172E-02 4.33840E-04-8.33570E-05-9.37558E-04
 -1         8-2.22581E-02-1.93250E-02-1.55597E-02-1.44276E-04-3.08234E-05 1.21707E-04
 -1         9 3.09103E-04-1.69033E-03 1.06770E-03 1.69845E-04 8.35844E-05-4.79216E-05
 -1        10-2.51924E-03-1.62440E-03 1.21023E-03-5.50740E-06 2.22265E-04 9.50379E-05
 -1        11 7.89142E-04-1.32935E-03 2.09786E-03 2.65796E-04 1.93576E-04-2.60911E-04
 -1        12-2.06716E-04-1.99143E-03 2.26383E-03 4.28125E-05-1.91173E-05-2.95174E-04
 -1        13-2.14907E-02-2.01187E-02-1.55648E-02 4.06585E-04-2.96773E-04-1.73578E-04
 -1        14-9.65110E-03-1.02942E-02-7.30251E-03 1.32442E-03 1.91863E-04-5.07973E-05
 -1        15 4.59703E-03 3.89820E-03 6.51349E-03-8.81788E-04 1.77656E-04-8.82851E-05
 -1        16 7.62262E-03 8.31414E-03 1.20175E-02-3.28420E-04-2.42837E-04-1.66839E-05
 -1        17-1.18453E-02-1.03437E-02-7.05025E-03 3.21244E-05 1.07533E-04 5.12513E-04
 -1        18 2.96222E-03 3.64755E-03 6.68026E-03-1.70037E-04 1.09663E-04-3.82877E-04
 -1        19-2.15076E-02-1.99956E-02-1.72415E-02 7.62417E-04-1.15324E-04-8.23365E-04
 -1        20-8.41542E-03-1.10879E-02-7.62034E-03 6.18061E-04 2.16176E-04-3.92184E-04
 -1        21 4.96556E-03 3.32988E-03 6.46072E-03-6.88048E-04 2.03717E-04 5.36264E-04
 -1        22 7.63095E-03 8.57237E-03 1.08858E-02-5.26317E-04-1.29272E-04 4.42402E-04
 -1        23-9.65827E-03-1.07213E-02-7.37997E-03 8.87110E-06 9.95883E-05-7.98912E-04
 -1        24 4.47479E-03 3.42918E-03 6.67754E-03 9.80373E-05 5.19119E-05 3.48403E-04
 -1        25 7.68082E-03 7.97183E-03 1.15536E-02-5.01287E-04-1.33458E-04 6.20478E-04
 -1        26-2.12657E-02-2.09996E-02-1.62969E-02 1.01468E-03-6.27026E-05-7.90487E-04
 -1        27 7.17846E-03 8.95765E-03 1.13152E-02 1.14476E-05-3.56394E-06 5.98242E-04
 -1        28-2.19937E-02-1.92908E-02-1.64572E-02 9.02912E-05 2.09056E-05-6.35177E-04
 -1        29-1.12500E-02-1.05139E-02-7.19070E-03 5.88932E-04 1.55108E-04 1.68466E-04
 -1        30-1.50392E-03-1.85455E-03 1.17948E-03 8.02920E-05 7.45911E-05 4.28463E-05
 -1        31 3.07009E-03 3.67799E-03 6.62525E-03-3.18152E-04 1.40673E-04-1.19102E-04
 -1        32-9.59499E-03-1.01833E-02-7.52374E-03 8.74893E-04 1.37198E-04-8.42918E-04
 -1        33 4.66416E-03 3.67045E-03 6.69388E-03-5.51257E-04 1.74791E-04 4.81542E-04
 -1        34-6.71716E-05-1.69025E-03 2.19027E-03 1.85843E-04 1.70651E-05-3.48112E-04
 -1        35-9.69792E-03-1.07568E-02-6.68795E-03 1.16179E-03 3.07020E-05-9.37838E-04
 -1        36 4.45666E-03 3.68108E-03 6.95161E-03-6.42653E-04 6.22696E-05 6.30749E-04
 -1        37 3.46670E-04-1.70832E-03 1.62052E-03 2.67514E-04-2.62609E-05-2.20928E-04
 -1        38-1.11468E-02-1.04840E-02-6.63085E-03-9.38966E-05 4.67313E-05-4.60911E-04
 -1        39 3.42308E-03 3.51637E-03 7.14272E-03 9.60173E-05 6.00882E-05 3.02615E-04
 -1        40-1.61729E-03-2.07070E-03 1.61315E-03 6.05454E-06-7.03304E-05-1.31834E-04
 -1        41 7.10028E-03 8.38005E-03 1.13922E-02-3.43747E-04-1.76835E-04 3.84682E-04
 -1        42-2.19309E-02-1.98876E-02-1.62432E-02 9.10305E-04-2.22505E-04-9.05672E-04
 -1        43-1.44038E-03-1.49906E-03 1.65302E-03 1.72415E-04 1.11848E-04-1.25025E-04
 -1        44-1.08990E-02-1.02839E-02-6.72974E-03 7.19831E-04 8.15617E-05-7.08108E-04
 -1        45 3.82186E-03 3.77211E-03 7.01460E-03-4.54781E-04 1.03895E-04 4.15634E-04
 -3
    1PSTEP                        32           8           1          
  100CL  108 8.000000000          45                     0    8           1
 -4  ERROR       1    1
 -5  STR(%)      1    1    0    0
 -1         1 1.08677E+01
 -1         2 2.35411E+01
 -1         3 1.77111E+01
 -1         4 2.35411E+01
 -1         5 2.22429E+01
 -1         6 4.24167E+01
 -1         7 2.22429E+01
 -1         8 3.29160E+01
 -1         9 4.24167E+01
 -1        10 4.24167E+01
 -1        11 4.24167E+01
 -1        12 1.77111E+01
 -1        13 3.76663E+01
 -1        14 4.24167E+01
 -1        15 3.29789E+01
 -1        16 2.35411E+01
 -1        17 3.76663E+01
 -1        18 3.29789E+01
 -1        19 2.22429E+01
 -1        20 3.23298E+01
 -1        21 2.66422E+01
 -1        22 1.42894E+01
 -1        23 1.99770E+01
 -1        24 1.77111E+01
 -1        25 1.72044E+01
 -1        26 3.23298E+01
 -1        27 2.06261E+01
 -1        28 2.75795E+01
 -1        29 4.24167E+01
 -1        30 4.24167E+01
 -1        31 3.29789E+01
 -1        32 3.23298E+01
 -1        33 3.00639E+01
 -1        34 3.00639E+01
 -1        35 4.24167E+01
 -1        36 3.29789E+01
 -1        37 4.24167E+01
 -1        38 2.53136E+01
 -1        39 2.06261E+01
 -1        40 3.00639E+01
 -1        41 1.72044E+01
 -1        42 3.23298E+01
 -1        43 4.24167E+01
 -1        44 3.76663E+01
 -1        45 3.29789E+01
 -3
    1PSTEP                        33           9           1          
  100CL  109 9.000000000          45                     0    9           1
 -4  DISP        4    1
 -5  D1          1    2    1    0
 -5  D2          1    2    2    0
 -5  D3          1    2    3    0
 -5  ALL         1    2    0    0    1ALL
 -1         1-6.21940E+00 3.88722E+00-5.35097E+00
 -1         2-2.87618E+00 3.75751E+00 0.00000E+00
 -1         3-2.83474E+00 0.00000E+00-5.23199E+00
 -1         4 0.00000E+00 0.00000E+00 0.00000E+00
 -1         5-2.43096E+00-1.15378E+01 9.57545E+00
 -1         6 1.65438E+00-1.16212E+01 0.00000E+00
 -1         7 1.80601E+00 0.00000E+00 9.67977E+00
 -1         8 6.42503E+00 0.00000E+00 0.00000E+00
 -1         9-4.50999E+00-1.92096E+00 0.00000E+00
 -1        10-8.04300E-01 0.00000E+00 0.00000E+00
 -1        11-8.02753E+00-1.83511E+00 2.18305E-01
 -1        12-4.38930E+00 0.00000E+00 2.16401E-01
 -1        13 5.17121E+00-5.75460E+00 0.00000E+00
 -1        14-2.76490E+00-6.49284E+00 0.00000E+00
 -1        15-4.30991E+00 1.20911E+00 0.00000E+00
 -1        16-7.76444E-01 1.90818E+00 0.00000E+00
 -1        17 1.52914E+00 0.00000E+00 0.00000E+00
 -1        18-1.09747E+00 0.00000E+00 0.00000E+00
 -1        19 9.96081E-01-5.64826E+00 9.59744E+00
 -1        20-6.79644E+00-6.58274E+00 4.82125E+00
 -1        21-7.54759E+00 1.05869E+00-2.61766E+00
 -1        22-3.78069E+00 1.99871E+00-5.28691E+00
 -1        23-2.68724E+00 0.00000E+00 4.75206E+00
 -1        24-4.18419E+00 0.00000E+00-2.74698E+00
 -1        25-3.86604E+00 3.81378E+00-2.73677E+00
 -1        26 8.95327E-01-1.15621E+01 4.68355E+00
 -1        27-8.04240E-01 0.00000E+00-2.65971E+00
 -1        28 5.28652E+00 0.00000E+00 4.76853E+00
 -1        29 4.87390E-01-3.23645E+00 0.00000E+00
 -1        30-1.71335E+00-9.81086E-01 0.00000E+00
 -1        31-1.96126E+00 5.92911E-01 0.00000E+00
 -1        32-3.58914E+00-3.28854E+00 4.79687E+00
 -1        33-5.05320E+00 5.52107E-01-2.71517E+00
 -1        34-5.28593E+00-9.55386E-01 2.13386E-01
 -1        35-3.61616E+00-6.53790E+00 2.39466E+00
 -1        36-5.15335E+00 1.15951E+00-1.33813E+00
 -1        37-5.37302E+00-1.91970E+00 1.76552E-01
 -1        38 4.80050E-01 0.00000E+00 2.34233E+00
 -1        39-1.90387E+00 0.00000E+00-1.38843E+00
 -1        40-1.70842E+00 0.00000E+00 1.76692E-01
 -1        41-1.63535E+00 1.99384E+00-2.73525E+00
 -1        42 4.24763E+00-5.67819E+00 4.70802E+00
 -1        43-2.62637E+00-9.76510E-01 1.48273E-01
 -1        44-4.84998E-01-3.23525E+00 2.36286E+00
 -1        45-2.77335E+00 5.74281E-01-1.35132E+00
 -3
    1PSTEP                        34           9           1          
  100CL  109 9.000000000          45                     0    9           1
 -4  STRESS      6    1
 -5  SXX         1    4    1    1
 -5  SYY         1    4    2    2
 -5  SZZ         1    4    3    3
 -5  SXY         1    4    1    2
 -5  SYZ         1    4    2    3
 -5  SZX         1    4    3    1
 -1         1 4.40727E-01 6.04544E-01 4.72513E-01-4.28182E-01-6.69492E-02 3.26067E-01
 -1         2 4.24743E-01 5.52856E-01 7.24182E-01-4.71902E-01-5.46355E-02 1.40939E-01
 -1         3 4.14334E-01 1.52173E+00 2.69072E-01-1.19119E-01 1.98876E-02 4.74596E-01
 -1         4-1.08691E+00 7.94263E-01 7.54898E-01-7.30968E-02-4.63015E-02 7.87105E-02
 -1         5-1.79804E-01 9.87590E-03-1.51992E-01-8.62736E-03 1.84849E-02 1.70819E-01
 -1         6 2.47779E-01 2.22384E-01 2.35689E-01 6.30146E-02-3.91932E-02 3.38163E-02
 -1         7-3.01722E-01 4.70497E-01-1.28084E-01-1.89195E-02-7.02926E-02 1.34771E-01
 -1         8-2.22868E-01 6.67132E-01 3.82582E-01-8.89032E-02-9.87660E-03 1.46909E-01
 -1         9 1.15417E+00-3.18282E-01-4.42368E-01 2.57249E-01 1.30774E-02-7.71947E-02
 -1        10-1.15175E+00-8.28240E-01-7.95435E-01 4.56416E-02 7.84003E-02-2.21534E-02
 -1        11 6.31005E-01-5.04102E-01-2.54383E-01 1.70917E-01 6.23721E-02-1.98988E-01
 -1        12 1.16427E-01-8.04487E-01-1.67834E-01 4.75605E-02 5.28897E-03-2.57912E-01
 -1        13-8.88930E-02 2.63123E-01-1.65871E-02 5.30147E-05-4.24520E-03 9.00679E-02
 -1        14 6.89880E-01 3.19234E-01 4.88138E-01 2.79152E-01 6.42916E-03-1.07443E-01
 -1        15 7.20496E-01 2.26649E-02-6.19331E-01-4.09666E-01 9.37788E-02-9.57679E-02
 -1        16-6.25023E-03 7.18808E-01 1.36434E+00-2.59851E-01-1.65044E-01 8.30443E-02
 -1        17-4.11688E-01 2.53715E-01 2.25964E-01-1.05254E-02 2.30208E-02 4.97071E-02
 -1        18-9.30916E-01-5.72542E-01-5.47184E-01-7.06361E-02 5.99550E-02-2.14293E-01
 -1        19-4.16270E-01 1.68375E-01-2.00481E-01-1.32792E-02-5.77758E-02 1.52636E-01
 -1        20 6.09312E-01 9.77627E-02 3.11654E-01 2.53173E-01 9.41205E-02-1.61681E-01
 -1        21 8.50818E-01-7.73793E-01-7.52957E-01-2.47843E-01 1.21219E-01 7.35015E-02
 -1        22 3.28391E-01 1.47148E+00 6.00482E-01-4.10740E-01-4.73120E-02 3.54933E-01
 -1        23 1.73304E-01 1.82189E-01 1.61072E-01 7.17841E-02-1.61064E-02-1.47413E-01
 -1        24 5.01595E-01-4.06892E-01-3.38633E-01 7.02183E-02 3.99276E-02 7.14275E-02
 -1        25 5.06992E-01 8.01054E-01 1.26609E+00-4.29626E-01-4.91093E-02 4.36021E-01
 -1        26-8.93176E-02-2.17967E-02-2.52962E-01 5.31475E-03-3.67267E-02 1.50740E-01
 -1        27-4.64729E-01 1.46565E+00 4.59399E-01-7.54207E-02 8.86843E-03 4.25690E-01
 -1        28-2.65656E-01 4.65671E-01 4.11070E-02-5.70966E-02-2.89238E-02 1.79772E-01
 -1        29-2.03838E-01 1.07466E-01 3.23651E-01 6.79739E-02 3.47574E-02-2.88414E-03
 -1        30-2.20798E-01-6.73949E-01-6.05641E-01 2.21543E-01 1.81149E-02-1.73698E-02
 -1        31-7.12408E-01-4.19923E-01-6.95063E-01-1.82991E-01 5.86356E-02-6.07469E-02
 -1        32 2.31480E-01 3.57467E-01 2.26004E-01 2.54672E-01-6.64095E-03-1.92084E-01
 -1        33 6.97985E-01-1.72528E-01-2.73783E-01-1.88953E-01 1.00611E-01 1.28691E-01
 -1        34 1.93813E-01-5.57729E-01-1.43482E-01 4.25674E-02 5.61782E-03-2.66628E-01
 -1        35 4.81055E-01 1.45890E-01 4.52387E-01 2.99472E-01-2.46425E-02-1.98216E-01
 -1        36 6.05644E-01-1.31250E-01-2.61389E-01-2.73397E-01 4.88510E-02 1.63510E-01
 -1        37 1.08221E+00-2.61635E-01-1.55009E-01 2.79727E-01-2.26470E-02-4.63484E-02
 -1        38 3.90809E-02 2.63930E-01 4.30552E-01-6.12088E-03-1.91952E-02-1.17049E-01
 -1        39-6.81119E-01-5.68971E-01-2.36891E-01 7.21894E-02 5.32285E-02 2.74650E-02
 -1        40-4.42621E-01-7.98930E-01-4.00074E-01 1.31113E-02-7.04206E-03-7.95442E-02
 -1        41-3.63790E-01 1.15310E+00 1.00388E+00-3.15237E-01-9.53503E-02 2.91479E-01
 -1        42-2.39894E-01 9.36614E-02-3.80452E-01-1.16414E-02-8.35816E-02 1.35479E-01
 -1        43-4.03938E-01-5.29251E-01-4.57241E-01 1.14526E-01 3.12022E-02-2.45957E-02
 -1        44-1.04827E-02 3.65090E-01 3.80228E-01 2.08548E-01-2.55783E-02-1.65248E-01
 -1        45-2.08902E-01-2.10577E-01-1.82961E-01-1.45786E-01 6.29065E-02 4.40496E-02
 -3
    1PSTEP                        35           9           1          
  100CL  109 9.000000000          45                     0    9           1
 -4  TOSTRAIN    6    1
 -5  EXX         1    4    1    1
 -5  EYY         1    4    2    2
 -5  EZZ         1    4    3    3
 -5  EXY         1    4    1    2
 -5  EYZ         1    4    2    3
 -5  EZX         1    4    3    1
 -1         1 7.02324E-03 7.18900E-03 1.00804E-02-6.05404E-04-1.63439E-04 5.33670E-04
 -1         2 7.59997E-03 7.77693E-03 1.11585E-02-6.78025E-04-9.09210E-05 1.56482E-04
 -1         3 7.13942E-03 8.15114E-03 1.01142E-02-8.63442E-05 1.23290E-05 6.73352E-04
 -1         4 6.21354E-03 8.04118E-03 1.11189E-02-3.33414E-05-7.20200E-05 3.58602E-05
 -1         5-2.36832E-02-2.40408E-02-1.99842E-02 6.26300E-04 2.83156E-06-4.20582E-04
 -1         6-2.38487E-02-2.33962E-02-1.85158E-02 1.09228E-03-1.65195E-04-4.45782E-04
 -1         7-2.45402E-02-2.23104E-02-1.99416E-02 3.84195E-04-1.08695E-04-7.78037E-04
 -1         8-2.53227E-02-2.25029E-02-1.85873E-02-1.60605E-04-3.27205E-05 1.67063E-04
 -1         9-1.64949E-03-3.67705E-03-9.75789E-04 2.31989E-04 8.08020E-05-6.54033E-05
 -1        10-4.47540E-03-3.61964E-03-8.26612E-04 6.29573E-06 2.22554E-04 8.11367E-05
 -1        11-1.26020E-03-3.32506E-03 6.90756E-06 2.99225E-04 1.90510E-04-3.01959E-04
 -1        12-2.22900E-03-3.97280E-03 1.79111E-04 5.17161E-05-1.39666E-05-3.46118E-04
 -1        13-2.45473E-02-2.32422E-02-1.85700E-02 3.70399E-04-2.67865E-04-1.14977E-04
 -1        14-1.23040E-02-1.29431E-02-9.84821E-03 1.28870E-03 1.73445E-04-8.89440E-05
 -1        15 3.27417E-03 2.54722E-03 5.08290E-03-8.95013E-04 1.82530E-04-1.04600E-04
 -1        16 6.81636E-03 7.51500E-03 1.11902E-02-3.43184E-04-2.56751E-04-2.51833E-06
 -1        17-1.44297E-02-1.29492E-02-9.62553E-03 2.58747E-05 1.04911E-04 4.75067E-04
 -1        18 1.61182E-03 2.27532E-03 5.26424E-03-1.70461E-04 1.14743E-04-3.97797E-04
 -1        19-2.45604E-02-2.30755E-02-1.99743E-02 6.80112E-04-1.29265E-04-6.62600E-04
 -1        20-1.11706E-02-1.36593E-02-1.01229E-02 6.51643E-04 2.33682E-04-4.10669E-04
 -1        21 3.62346E-03 1.95573E-03 5.03541E-03-6.79571E-04 2.14143E-04 5.03361E-04
 -1        22 6.80009E-03 7.77439E-03 1.00317E-02-5.51050E-04-1.28728E-04 4.65981E-04
 -1        23-1.23658E-02-1.33053E-02-9.92425E-03 4.11590E-05 8.16820E-05-7.67913E-04
 -1        24 3.11532E-03 2.05709E-03 5.25929E-03 1.06966E-04 5.56997E-05 3.27597E-04
 -1        25 6.85938E-03 7.16203E-03 1.07019E-02-5.30908E-04-1.32739E-04 6.43179E-04
 -1        26-2.42660E-02-2.40180E-02-1.91508E-02 9.13623E-04-7.19514E-05-6.34240E-04
 -1        27 6.36920E-03 8.18574E-03 1.04639E-02 9.15719E-07-2.99871E-06 6.27182E-04
 -1        28-2.50389E-02-2.24567E-02-1.93594E-02 6.07050E-05 3.87400E-06-4.90322E-04
 -1        29-1.38531E-02-1.31388E-02-9.73507E-03 5.59900E-04 1.51367E-04 1.46266E-04
 -1        30-3.45675E-03-3.84188E-03-8.62675E-04 1.36061E-04 7.41747E-05 3.45644E-05
 -1        31 1.72027E-03 2.31817E-03 5.19600E-03-3.26660E-04 1.43798E-04-1.25215E-04
 -1        32-1.22985E-02-1.27925E-02-1.00519E-02 8.80192E-04 1.18296E-04-8.25782E-04
 -1        33 3.31318E-03 2.30321E-03 5.28044E-03-5.46770E-04 1.82211E-04 4.62880E-04
 -1        34-2.10048E-03-3.67018E-03 1.09318E-04 1.85337E-04 1.85111E-05-3.97260E-04
 -1        35-1.23467E-02-1.33654E-02-9.27544E-03 1.15612E-03 1.77327E-05-9.14491E-04
 -1        36 3.12006E-03 2.32678E-03 5.51566E-03-6.45125E-04 6.81730E-05 6.12304E-04
 -1        37-1.63371E-03-3.69031E-03-4.36595E-04 3.27220E-04-2.92930E-05-2.13860E-04
 -1        38-1.37336E-02-1.30922E-02-9.22437E-03-8.51273E-05 3.31268E-05-4.53278E-04
 -1        39 2.05876E-03 2.14581E-03 5.71834E-03 1.06019E-04 6.62835E-05 2.80214E-04
 -1        40-3.59592E-03-4.05731E-03-4.32791E-04 9.06865E-06-6.47721E-05-1.44570E-04
 -1        41 6.26096E-03 7.57614E-03 1.05386E-02-3.67140E-04-1.80750E-04 4.02290E-04
 -1        42-2.48904E-02-2.29946E-02-1.91291E-02 8.11805E-04-2.38949E-04-7.43754E-04
 -1        43-3.41684E-03-3.48934E-03-4.01494E-04 1.91125E-04 1.07971E-04-1.22375E-04
 -1        44-1.35171E-02-1.28880E-02-9.31640E-03 7.20099E-04 6.38533E-05-6.94034E-04
 -1        45 2.46853E-03 2.40823E-03 5.59159E-03-4.50111E-04 1.09855E-04 3.90171E-04
 -3
    1PSTEP                        36           9           1          
  100CL  109 9.000000000          45                     0    9           1
 -4  ERROR       1    1
 -5  STR(%)      1    1    0    0
 -1         1 1.48131E+01
 -1         2 2.27720E+01
 -1         3 1.79906E+01
 -1         4 2.27720E+01
 -1         5 2.60725E+01
 -1         6 3.25711E+01
 -1         7 2.79345E+01
 -1         8 2.79345E+01
 -1         9 3.25711E+01
 -1        10 3.25711E+01
 -1        11 3.25711E+01
 -1        12 2.49687E+01
 -1        13 3.02528E+01
 -1        14 3.25711E+01
 -1        15 2.76715E+01
 -1        16 2.27720E+01
 -1        17 3.02528E+01
 -1        18 2.76715E+01
 -1        19 2.70035E+01
 -1        20 2.93218E+01
 -1        21 2.36921E+01
 -1        22 1.64018E+01
 -1        23 2.64516E+01
 -1        24 2.14796E+01
 -1        25 1.87925E+01
 -1        26 2.93218E+01
 -1        27 2.03813E+01
 -1        28 2.79345E+01
 -1        29 3.25711E+01
 -1        30 3.25711E+01
 -1        31 2.76715E+01
 -1        32 3.02528E+01
 -1        33 2.52808E+01
 -1        34 2.87699E+01
 -1        35 3.25711E+01
 -1        36 2.76715E+01
 -1        37 3.25711E+01
 -1        38 2.64516E+01
 -1        39 2.38703E+01
 -1        40 2.87699E+01
 -1        41 1.87925E+01
 -1        42 3.02528E+01
 -1        43 3.25711E+01
 -1        44 3.02528E+01
 -1        45 2.76715E+01
 -3
    1PSTEP                        37          10           1          
  100CL  110 10.00000000          45                     0   10           1
 -4  DISP        4    1
 -5  D1          1    2    1    0
 -5  D2          1    2    2    0
 -5  D3          1    2    3    0
 -5  ALL         1    2    0    0    1ALL
 -1         1-6.73892E+00 3.48260E+00-4.91762E+00
 -1         2-3.14375E+00 3.35614E+00 0.00000E+00
 -1         3-3.09083E+00 0.00000E+00-4.80254E+00
 -1         4 0.00000E+00 0.00000E+00 0.00000E+00
 -1         5-9.51364E-01-1.28781E+01 1.07448E+01
 -1         6 3.28742E+00-1.29867E+01 0.00000E+00
 -1         7 3.50473E+00 0.00000E+00 1.08769E+01
 -1         8 8.24336E+00 0.00000E+00 0.00000E+00
 -1         9-4.12195E+00-2.87988E+00 0.00000E+00
 -1        10-1.56459E-01 0.00000E+00 0.00000E+00
 -1        11-7.87371E+00-2.79190E+00 1.20445E+00
 -1        12-3.96894E+00 0.00000E+00 1.19551E+00
 -1        13 6.94093E+00-6.43844E+00 0.00000E+00
 -1        14-1.81391E+00-7.70650E+00 0.00000E+00
 -1        15-4.32075E+00 5.41539E-01 0.00000E+00
 -1        16-8.43429E-01 1.70650E+00 0.00000E+00
 -1        17 2.71058E+00 0.00000E+00 0.00000E+00
 -1        18-8.39522E-01 0.00000E+00 0.00000E+00
 -1        19 2.60942E+00-6.33311E+00 1.07715E+01
 -1        20-5.98503E+00-7.77538E+00 5.96723E+00
 -1        21-7.79553E+00 3.88474E-01-1.92061E+00
 -1        22-4.10599E+00 1.79713E+00-4.85582E+00
 -1        23-1.67158E+00 0.00000E+00 5.91249E+00
 -1        24-4.17442E+00 0.00000E+00-2.05445E+00
 -1        25-4.19924E+00 3.41009E+00-2.51916E+00
 -1        26 2.43810E+00-1.29070E+01 5.29184E+00
 -1        27-8.64817E-01 0.00000E+00-2.44305E+00
 -1        28 7.05801E+00 0.00000E+00 5.37486E+00
 -1        29 1.61255E+00-3.83560E+00 0.00000E+00
 -1        30-1.12603E+00-1.46003E+00 0.00000E+00
 -1        31-1.76716E+00 2.56739E-01 0.00000E+00
 -1        32-2.62275E+00-3.88104E+00 5.94477E+00
 -1        33-5.10847E+00 2.16225E-01-2.02108E+00
 -1        34-4.92976E+00-1.43287E+00 1.19599E+00
 -1        35-2.70585E+00-7.73811E+00 2.96549E+00
 -1        36-5.21904E+00 4.90678E-01-9.87076E-01
 -1        37-5.03846E+00-2.87662E+00 6.65466E-01
 -1        38 1.62171E+00 0.00000E+00 2.92873E+00
 -1        39-1.70442E+00 0.00000E+00-1.04207E+00
 -1        40-1.11170E+00 0.00000E+00 6.61504E-01
 -1        41-1.76902E+00 1.79260E+00-2.51853E+00
 -1        42 5.94295E+00-6.36420E+00 5.31764E+00
 -1        43-2.09696E+00-1.45507E+00 6.37587E-01
 -1        44 5.94443E-01-3.83696E+00 2.94021E+00
 -1        45-2.63825E+00 2.38224E-01-1.00199E+00
 -3
    1PSTEP                        38          10           1          
  100CL  110 10.00000000          45                     0   10           1
 -4  STRESS      6    1
 -5  SXX         1    4    1    1
 -5  SYY         1    4    2    2
 -5  SZZ         1    4    3    3
 -5  SXY         1    4    1    2
 -5  SYZ         1    4    2    3
 -5  SZX         1    4    3    1
 -1         1 3.16073E-01 5.08009E-01 3.61712E-01-3.47808E-01-3.64760E-02 2.34902E-01
 -1         2 3.61471E-01 4.64529E-01 4.14748E-01-4.05712E-01-4.94185E-02 1.16994E-01
 -1         3 3.71372E-01 1.26512E+00 2.17482E-01-1.12752E-01 1.83417E-02 4.06350E-01
 -1         4-7.44631E-01 5.96787E-01 4.70056E-01-6.89708E-02-4.21055E-02 7.64623E-02
 -1         5-4.21456E-01-7.92473E-02-2.81764E-01-1.08847E-01 2.93820E-02 3.11769E-01
 -1         6 2.49939E-01 3.54475E-02-2.41111E-01-8.44785E-02-2.76062E-02 1.13778E-01
 -1         7-3.35320E-01-9.19991E-03-3.01683E-01-8.05474E-02-8.28614E-02 3.17283E-01
 -1         8 1.82565E-01 4.61403E-01 5.66372E-02-8.24560E-02-7.20251E-03 1.59838E-01
 -1         9 8.76872E-01-2.31171E-01-1.53568E-01 3.10533E-01 1.03729E-04-9.13733E-02
 -1        10-5.80893E-01-5.48321E-01-2.95194E-01 5.68857E-02 5.69058E-02-4.40466E-02
 -1        11 2.58959E-01-3.18031E-01-2.73545E-02 1.93398E-01 3.85371E-02-2.31227E-01
 -1        12-1.03641E-01-5.62367E-01-1.09729E-01 5.21400E-02 1.22320E-02-2.87566E-01
 -1        13-7.10599E-02 1.30193E-03-6.18115E-01-4.83566E-02 4.34305E-02 1.36521E-01
 -1        14 5.48300E-01 3.20051E-01 7.23162E-01 1.42939E-01-2.67151E-02-1.43928E-01
 -1        15 5.71662E-01-3.00581E-02-5.79528E-01-3.01871E-01 7.45777E-02-1.13102E-01
 -1        16 8.66767E-02 5.76481E-01 9.95454E-01-2.14097E-01-1.48735E-01 9.89484E-02
 -1        17 2.08549E-02 4.02271E-01 4.30358E-01-1.82105E-02 1.01116E-02-3.35388E-02
 -1        18-6.32582E-01-5.50918E-01-4.45255E-01-4.31899E-02 5.19644E-02-1.85081E-01
 -1        19-4.78350E-01-1.81004E-01-3.62603E-01-1.25221E-01-5.95831E-02 3.26121E-01
 -1        20 6.76070E-02 2.97596E-01 5.78831E-01 2.34028E-01 9.00346E-02-1.48582E-01
 -1        21 4.81344E-01-7.20726E-01-6.48185E-01-1.24850E-01 1.08379E-01-6.36056E-02
 -1        22 2.85394E-01 1.22652E+00 5.22033E-01-3.44821E-01-2.36586E-02 3.04305E-01
 -1        23-1.10531E-01 3.01481E-01 2.79102E-01 1.00992E-01-3.81672E-02-6.49211E-02
 -1        24 2.29298E-01-4.08394E-01-2.98401E-01 7.18464E-02 3.61008E-02-1.59869E-02
 -1        25 4.71071E-01 7.30106E-01 9.38962E-01-3.80493E-01-2.34668E-02 3.45570E-01
 -1        26-1.15751E-01-1.52664E-01-7.20064E-01-1.37178E-01-3.82100E-02 3.19533E-01
 -1        27-2.32221E-01 1.22292E+00 2.86285E-01-8.66789E-02 9.39773E-03 3.54845E-01
 -1        28-7.50504E-02 6.08197E-02-2.32447E-01-7.81042E-02-4.18499E-02 3.30498E-01
 -1        29 1.19998E-01 2.34395E-01 5.85245E-01 2.94395E-03 1.52958E-02-4.47957E-02
 -1        30 1.19648E-03-4.61527E-01-2.48884E-01 2.69835E-01 9.04475E-03-3.01581E-02
 -1        31-4.90577E-01-3.70796E-01-6.18623E-01-1.40072E-01 4.37767E-02-5.87957E-02
 -1        32-6.10546E-02 3.66312E-01 4.23294E-01 1.86702E-01-3.56998E-02-1.14232E-01
 -1        33 3.92184E-01-2.34996E-01-2.27944E-01-1.01733E-01 8.52473E-02 2.60400E-02
 -1        34-9.81956E-02-3.99320E-01-8.10030E-02 3.36739E-02 4.98659E-03-2.90661E-01
 -1        35 2.98569E-01 2.33936E-01 4.56606E-01 2.02890E-01-4.02426E-02-9.70806E-02
 -1        36 4.19867E-01-1.45563E-01-3.64908E-01-1.80536E-01 4.73770E-02 4.56304E-02
 -1        37 7.05487E-01-2.00787E-01-5.64627E-02 3.21178E-01-2.37751E-02-2.47278E-02
 -1        38 2.55485E-01 3.86705E-01 4.54956E-01 1.30115E-02-3.41385E-02-7.29750E-02
 -1        39-5.79323E-01-5.57357E-01-3.22306E-01 7.67862E-02 5.33575E-02-5.14567E-02
 -1        40-2.58821E-01-5.51657E-01-1.65935E-01 1.49901E-02 6.46788E-03-8.83527E-02
 -1        41-2.28917E-01 9.63772E-01 7.44199E-01-2.83544E-01-7.07844E-02 2.39903E-01
 -1        42-1.69922E-01-3.58139E-01-9.40771E-01-1.43609E-01-7.92371E-02 3.13937E-01
 -1        43-2.06816E-01-3.58054E-01-1.82006E-01 1.20869E-01 1.74334E-02-2.16445E-02
 -1        44 7.36247E-02 4.19870E-01 4.07328E-01 1.44061E-01-4.92875E-02-8.91234E-02
 -1        45-2.09926E-01-2.67942E-01-2.53076E-01-7.46942E-02 5.62028E-02-5.14976E-02
 -3
    1PSTEP                        39          10           1          
  100CL  110 10.00000000          45                     0   10           1
 -4  TOSTRAIN    6    1
 -5  EXX         1    4    1    1
 -5  EYY         1    4    2    2
 -5  EZZ         1    4    3    3
 -5  EXY         1    4    1    2
 -5  EYZ         1    4    2    3
 -5  EZX         1    4    3    1
 -1         1 6.19565E-03 6.37311E-03 9.22279E-03-6.16119E-04-1.58170E-04 5.32551E-04
 -1         2 6.82208E-03 7.00259E-03 1.03096E-02-7.02261E-04-9.43919E-05 1.64873E-04
 -1         3 6.34401E-03 7.36268E-03 9.27079E-03-9.73905E-05 1.32522E-05 6.97381E-04
 -1         4 5.43798E-03 7.24684E-03 1.02688E-02-4.07885E-05-7.53732E-05 4.91638E-05
 -1         5-2.63717E-02-2.66038E-02-2.21339E-02 5.17162E-04 1.86256E-05-2.31709E-04
 -1         6-2.65077E-02-2.61545E-02-2.10655E-02 9.53079E-04-1.63043E-04-3.44044E-04
 -1         7-2.71889E-02-2.51043E-02-2.22219E-02 3.10522E-04-1.38026E-04-5.55413E-04
 -1         8-2.79221E-02-2.53229E-02-2.11603E-02-1.76376E-04-3.42846E-05 2.18273E-04
 -1         9-3.59603E-03-5.59901E-03-2.91480E-03 3.04726E-04 7.49170E-05-8.57485E-05
 -1        10-6.33364E-03-5.55395E-03-2.76151E-03 2.13112E-05 2.16491E-04 6.12369E-05
 -1        11-3.33305E-03-5.26838E-03-2.02079E-03 3.34059E-04 1.80991E-04-3.46354E-04
 -1        12-4.23841E-03-5.87910E-03-1.84609E-03 6.14846E-05-7.02986E-06-4.01534E-04
 -1        13-2.71583E-02-2.59732E-02-2.11149E-02 3.14778E-04-2.24058E-04-3.87199E-05
 -1        14-1.47891E-02-1.54032E-02-1.21149E-02 1.20735E-03 1.44680E-04-1.34883E-04
 -1        15 1.96035E-03 1.21957E-03 3.69533E-03-8.85013E-04 1.83170E-04-1.22181E-04
 -1        16 6.02533E-03 6.71226E-03 1.03403E-02-3.51859E-04-2.66858E-04 1.60263E-05
 -1        17-1.67660E-02-1.53534E-02-1.19360E-02 1.73552E-05 9.84871E-05 4.13386E-04
 -1        18 3.13553E-04 9.28566E-04 3.88988E-03-1.65891E-04 1.17767E-04-4.04699E-04
 -1        19-2.71641E-02-2.57561E-02-2.21375E-02 5.57296E-04-1.43353E-04-4.41722E-04
 -1        20-1.38169E-02-1.60010E-02-1.23290E-02 6.76080E-04 2.49100E-04-4.22798E-04
 -1        21 2.27411E-03 6.16569E-04 3.65652E-03-6.47993E-04 2.20887E-04 4.46016E-04
 -1        22 5.97868E-03 6.96517E-03 9.18198E-03-5.66358E-04-1.24143E-04 4.82580E-04
 -1        23-1.49174E-02-1.56717E-02-1.21893E-02 8.07781E-05 5.65595E-05-7.07544E-04
 -1        24 1.75973E-03 7.17205E-04 3.88234E-03 1.15030E-04 5.87624E-05 2.91107E-04
 -1        25 6.04810E-03 6.35621E-03 9.83518E-03-5.53205E-04-1.27726E-04 6.53151E-04
 -1        26-2.68119E-02-2.65947E-02-2.14894E-02 7.60919E-04-8.14384E-05-4.19364E-04
 -1        27 5.58804E-03 7.39762E-03 9.60503E-03-1.27874E-05-2.23372E-06 6.45646E-04
 -1        28-2.76207E-02-2.52625E-02-2.17537E-02 2.16832E-05-1.79392E-05-2.94478E-04
 -1        29-1.62289E-02-1.55629E-02-1.20033E-02 5.07957E-04 1.41778E-04 1.13691E-04
 -1        30-5.34183E-03-5.75970E-03-2.80329E-03 2.03220E-04 7.15301E-05 2.31160E-05
 -1        31 4.19249E-04 9.86047E-04 3.80682E-03-3.27629E-04 1.43374E-04-1.28992E-04
 -1        32-1.48475E-02-1.52058E-02-1.22925E-02 8.61718E-04 9.06890E-05-7.81024E-04
 -1        33 1.96208E-03 9.62412E-04 3.90918E-03-5.24111E-04 1.86085E-04 4.24986E-04
 -1        34-4.12775E-03-5.58373E-03-1.90895E-03 1.79982E-04 1.97740E-05-4.48892E-04
 -1        35-1.48255E-02-1.57625E-02-1.16119E-02 1.11654E-03 5.14921E-07-8.58894E-04
 -1        36 1.79307E-03 1.00164E-03 4.10871E-03-6.28631E-04 7.35279E-05 5.69870E-04
 -1        37-3.60857E-03-5.60578E-03-2.40886E-03 3.94168E-04-3.22239E-05-1.99524E-04
 -1        38-1.60939E-02-1.54954E-02-1.15702E-02-7.14119E-05 1.49800E-05-4.31282E-04
 -1        39 7.28751E-04 8.05219E-04 4.31993E-03 1.15486E-04 7.21883E-05 2.43080E-04
 -1        40-5.50889E-03-5.96789E-03-2.39100E-03 1.26028E-05-5.58143E-05-1.57208E-04
 -1        41 5.44460E-03 6.76537E-03 9.67444E-03-3.86295E-04-1.80274E-04 4.13189E-04
 -1        42-2.73679E-02-2.57116E-02-2.15089E-02 6.64919E-04-2.53173E-04-5.18801E-04
 -1        43-5.33276E-03-5.42116E-03-2.37146E-03 2.09916E-04 9.99878E-05-1.16163E-04
 -1        44-1.59236E-02-1.52924E-02-1.16508E-02 6.99889E-04 3.95322E-05-6.56734E-04
 -1        45 1.13978E-03 1.06847E-03 4.19891E-03-4.30207E-04 1.14079E-04 3.45702E-04
 -3
    1PSTEP                        40          10           1          
  100CL  110 10.00000000          45                     0   10           1
 -4  ERROR       1    1
 -5  STR(%)      1    1    0    0
 -1         1 2.03562E+01
 -1         2 2.13379E+01
 -1         3 2.03562E+01
 -1         4 2.13379E+01
 -1         5 3.00000E+01
 -1         6 3.34708E+01
 -1         7 3.84485E+01
 -1         8 3.84485E+01
 -1         9 1.95972E+01
 -1        10 2.13379E+01
 -1        11 3.84485E+01
 -1        12 3.84485E+01
 -1        13 3.59596E+01
 -1        14 2.65340E+01
 -1        15 2.04676E+01
 -1        16 2.13379E+01
 -1        17 2.98932E+01
 -1        18 2.13379E+01
 -1        19 3.42242E+01
 -1        20 3.42242E+01
 -1        21 2.94023E+01
 -1        22 2.03562E+01
 -1        23 3.84485E+01
 -1        24 2.94023E+01
 -1        25 2.08470E+01
 -1        26 3.17354E+01
 -1        27 2.08470E+01
 -1        28 3.84485E+01
 -1        29 2.74044E+01
 -1        30 2.04676E+01
 -1        31 2.13379E+01
 -1        32 3.84485E+01
 -1        33 2.94023E+01
 -1        34 3.84485E+01
 -1        35 3.59596E+01
 -1        36 2.98932E+01
 -1        37 2.90228E+01
 -1        38 3.84485E+01
 -1        39 2.98932E+01
 -1        40 2.98932E+01
 -1        41 2.08470E+01
 -1        42 3.59596E+01
 -1        43 2.98932E+01
 -1        44 3.84485E+01
 -1        45 2.98932E+01
 -3
    1PSTEP                        41          11           1          
  100CL  111 11.00000000          45                     0   11           1
 -4  DISP        4    1
 -5  D1          1    2    1    0
 -5  D2          1    2    2    0
 -5  D3          1    2    3    0
 -5  ALL         1    2    0    0    1ALL
 -1         1-7.19222E+00 3.07214E+00-4.47654E+00
 -1         2-3.38939E+00 2.95284E+00 0.00000E+00
 -1         3-3.31597E+00 0.00000E+00-4.36909E+00
 -1         4 0.00000E+00 0.00000E+00 0.00000E+00
 -1         5 5.43090E-01-1.40165E+01 1.16536E+01
 -1         6 4.85294E+00-1.41538E+01 0.00000E+00
 -1         7 5.15372E+00 0.00000E+00 1.18172E+01
 -1         8 9.90998E+00 0.00000E+00 0.00000E+00
 -1         9-3.71645E+00-3.80377E+00 0.00000E+00
 -1        10 4.65033E-01 0.00000E+00 0.00000E+00
 -1        11-7.64977E+00-3.71524E+00 2.14783E+00
 -1        12-3.51941E+00 0.00000E+00 2.13041E+00
 -1        13 8.58086E+00-7.02452E+00 0.00000E+00
 -1        14-8.66479E-01-8.82075E+00 0.00000E+00
 -1        15-4.30981E+00-1.13672E-01 0.00000E+00
 -1        16-9.03579E-01 1.50293E+00 0.00000E+00
 -1        17 3.82463E+00 0.00000E+00 0.00000E+00
 -1        18-5.89624E-01 0.00000E+00 0.00000E+00
 -1        19 4.17708E+00-6.92276E+00 1.16855E+01
 -1        20-5.09274E+00-8.86192E+00 6.97761E+00
 -1        21-7.97660E+00-2.66260E-01-1.24281E+00
 -1        22-4.38989E+00 1.59144E+00-4.41905E+00
 -1        23-6.40068E-01 0.00000E+00 6.94203E+00
 -1        24-4.13386E+00 0.00000E+00-1.37897E+00
 -1        25-4.49633E+00 3.00257E+00-2.29601E+00
 -1        26 3.91704E+00-1.40504E+01 5.77711E+00
 -1        27-9.14635E-01 0.00000E+00-2.22291E+00
 -1        28 8.69951E+00 0.00000E+00 5.85589E+00
 -1        29 2.68586E+00-4.38362E+00 0.00000E+00
 -1        30-5.53406E-01-1.92085E+00 0.00000E+00
 -1        31-1.57142E+00-7.35156E-02 0.00000E+00
 -1        32-1.62678E+00-4.41966E+00 6.95805E+00
 -1        33-5.12338E+00-1.12692E-01-1.34450E+00
 -1        34-4.53396E+00-1.89253E+00 2.13520E+00
 -1        35-1.78269E+00-8.83490E+00 3.46829E+00
 -1        36-5.24986E+00-1.64837E-01-6.44318E-01
 -1        37-4.67252E+00-3.79810E+00 1.13051E+00
 -1        38 2.71713E+00 0.00000E+00 3.45161E+00
 -1        39-1.50171E+00 0.00000E+00-7.03845E-01
 -1        40-5.25956E-01 0.00000E+00 1.12156E+00
 -1        41-1.88515E+00 1.58746E+00-2.29650E+00
 -1        42 7.51940E+00-6.95460E+00 5.80397E+00
 -1        43-1.56825E+00-1.91555E+00 1.10378E+00
 -1        44 1.64015E+00-4.38799E+00 3.45166E+00
 -1        45-2.49013E+00-9.14364E-02-6.61021E-01
 -3
    1PSTEP                        42          11           1          
  100CL  111 11.00000000          45                     0   11           1
 -4  STRESS      6    1
 -5  SXX         1    4    1    1
 -5  SYY         1    4    2    2
 -5  SZZ         1    4    3    3
 -5  SXY         1    4    1    2
 -5  SYZ         1    4    2    3
 -5  SZX         1    4    3    1
 -1         1 1.78484E-01 4.00111E-01 2.39300E-01-2.58382E-01-2.95596E-03 1.34370E-01
 -1         2 2.90470E-01 3.64580E-01 7.16298E-02-3.31636E-01-4.31573E-02 9.08454E-02
 -1         3 3.23743E-01 9.76902E-01 1.60296E-01-1.05777E-01 1.68368E-02 3.30729E-01
 -1         4-3.66743E-01 3.75573E-01 1.54082E-01-6.46836E-02-3.72612E-02 7.39344E-02
 -1         5-6.85869E-01-1.77391E-01-4.23382E-01-2.19008E-01 4.11804E-02 4.65491E-01
 -1         6 2.50437E-01-1.71434E-01-7.65351E-01-2.47088E-01-1.45788E-02 2.01410E-01
 -1         7-3.70439E-01-5.38893E-01-4.91621E-01-1.48155E-01-9.61332E-02 5.16939E-01
 -1         8 6.28849E-01 2.31347E-01-3.03407E-01-7.50225E-02-4.20694E-03 1.73265E-01
 -1         9 5.65998E-01-1.33510E-01 1.66425E-01 3.68061E-01-1.42804E-02-1.06587E-01
 -1        10 5.09250E-02-2.35826E-01 2.58190E-01 6.93609E-02 3.28367E-02-6.77796E-02
 -1        11-1.51710E-01-1.11679E-01 2.22053E-01 2.17900E-01 1.21286E-02-2.66238E-01
 -1        12-3.44769E-01-2.91387E-01-4.45958E-02 5.69947E-02 1.97466E-02-3.19651E-01
 -1        13-5.15846E-02-2.88244E-01-1.27837E+00-1.01623E-01 9.58760E-02 1.86849E-01
 -1        14 3.88818E-01 3.19255E-01 9.79522E-01-8.51484E-03-6.31753E-02-1.83107E-01
 -1        15 4.04240E-01-8.89209E-02-5.35506E-01-1.81784E-01 5.33801E-02-1.31416E-01
 -1        16 1.88185E-01 4.17365E-01 5.86307E-01-1.63497E-01-1.30080E-01 1.16171E-01
 -1        17 4.97662E-01 5.64750E-01 6.54302E-01-2.66753E-02-4.22536E-03-1.25173E-01
 -1        18-3.02362E-01-5.26210E-01-3.33323E-01-1.29234E-02 4.28915E-02-1.51999E-01
 -1        19-5.43937E-01-5.65647E-01-5.39370E-01-2.48088E-01-6.12065E-02 5.15622E-01
 -1        20-5.30537E-01 5.16456E-01 8.70119E-01 2.11461E-01 8.49980E-02-1.33305E-01
 -1        21 7.38364E-02-6.60407E-01-5.31946E-01 1.13259E-02 9.38151E-02-2.14114E-01
 -1        22 2.37655E-01 9.53081E-01 4.34865E-01-2.71511E-01 2.48305E-03 2.48147E-01
 -1        23-4.22986E-01 4.32320E-01 4.07904E-01 1.32470E-01-6.21892E-02 2.63656E-02
 -1        24-6.97654E-02-4.09382E-01-2.53442E-01 7.31787E-02 3.17885E-02-1.12059E-01
 -1        25 4.30074E-01 6.49675E-01 5.77950E-01-3.25190E-01 4.81173E-03 2.45822E-01
 -1        26-1.44446E-01-2.96349E-01-1.23094E+00-2.93735E-01-3.96299E-02 5.03808E-01
 -1        27 2.42451E-02 9.50295E-01 9.53169E-02-9.90623E-02 1.01342E-02 2.76402E-01
 -1        28 1.35442E-01-3.86826E-01-5.33066E-01-1.00914E-01-5.58045E-02 4.95001E-01
 -1        29 4.76156E-01 3.73648E-01 8.71526E-01-6.89559E-02-6.28193E-03-9.04922E-02
 -1        30 2.45426E-01-2.24266E-01 1.46440E-01 3.22238E-01-1.10505E-03-4.38954E-02
 -1        31-2.43948E-01-3.15775E-01-5.33525E-01-9.21333E-02 2.73264E-02-5.58930E-02
 -1        32-3.83124E-01 3.74137E-01 6.38419E-01 1.10662E-01-6.75105E-02-2.77587E-02
 -1        33 5.51249E-02-3.03702E-01-1.77201E-01-4.90218E-03 6.81097E-02-8.68588E-02
 -1        34-4.18628E-01-2.21741E-01-1.13272E-02 2.42065E-02 4.21383E-03-3.16557E-01
 -1        35 9.55366E-02 3.29809E-01 4.58950E-01 9.52055E-02-5.71874E-02 1.47889E-02
 -1        36 2.13665E-01-1.61272E-01-4.78412E-01-7.71206E-02 4.57005E-02-8.45284E-02
 -1        37 2.86267E-01-1.32296E-01 5.31624E-02 3.65958E-01-2.49254E-02-1.66511E-03
 -1        38 4.93285E-01 5.20873E-01 4.79575E-01 3.39730E-02-5.04156E-02-2.41750E-02
 -1        39-4.65709E-01-5.43659E-01-4.16310E-01 8.12870E-02 5.32614E-02-1.38269E-01
 -1        40-5.48365E-02-2.74805E-01 9.36504E-02 1.69892E-02 2.13002E-02-9.81287E-02
 -1        41-7.98320E-02 7.52385E-01 4.57542E-01-2.47914E-01-4.35782E-02 1.82638E-01
 -1        42-9.16682E-02-8.54704E-01-1.55315E+00-2.88348E-01-7.38965E-02 5.08852E-01
 -1        43 1.14473E-02-1.66729E-01 1.22784E-01 1.27955E-01 2.13470E-03-1.86704E-02
 -1        44 1.66434E-01 4.78059E-01 4.35046E-01 7.22880E-02-7.51745E-02-4.89861E-03
 -1        45-2.10818E-01-3.30951E-01-3.30238E-01 4.33450E-03 4.86130E-02-1.56734E-01
 -3
    1PSTEP                        43          11           1          
  100CL  111 11.00000000          45                     0   11           1
 -4  TOSTRAIN    6    1
 -5  EXX         1    4    1    1
 -5  EYY         1    4    2    2
 -5  EZZ         1    4    3    3
 -5  EXY         1    4    1    2
 -5  EYZ         1    4    2    3
 -5  EZX         1    4    3    1
 -1         1 5.37068E-03 5.55819E-03 8.36661E-03-6.14831E-04-1.47717E-04 5.18647E-04
 -1         2 6.04379E-03 6.22452E-03 9.43845E-03-7.15633E-04-9.65223E-05 1.71511E-04
 -1         3 5.55563E-03 6.55810E-03 8.43124E-03-1.08956E-04 1.40389E-05 7.10813E-04
 -1         4 4.69607E-03 6.43778E-03 9.39689E-03-4.92272E-05-7.77321E-05 6.48083E-05
 -1         5-2.86434E-02-2.87170E-02-2.37045E-02 3.71242E-04 3.78727E-05 6.12276E-06
 -1         6-2.87422E-02-2.85188E-02-2.31520E-02 7.60648E-04-1.57086E-04-2.11105E-04
 -1         7-2.93941E-02-2.75348E-02-2.39521E-02 2.12558E-04-1.71398E-04-2.68864E-04
 -1         8-3.00517E-02-2.77808E-02-2.32737E-02-1.91681E-04-3.55070E-05 2.75560E-04
 -1         9-5.53068E-03-7.45574E-03-4.74840E-03 3.88457E-04 6.58690E-05-1.09032E-04
 -1        10-8.09324E-03-7.42684E-03-4.59357E-03 3.96720E-05 2.03993E-04 3.53465E-05
 -1        11-5.42992E-03-7.15904E-03-3.98496E-03 3.70840E-04 1.64960E-04-3.94701E-04
 -1        12-6.23509E-03-7.70968E-03-3.81148E-03 7.21570E-05 1.71439E-06-4.61922E-04
 -1        13-2.93193E-02-2.83074E-02-2.31945E-02 2.39502E-04-1.65178E-04 5.54795E-05
 -1        14-1.71045E-02-1.76725E-02-1.40995E-02 1.08008E-03 1.05495E-04-1.88748E-04
 -1        15 6.55473E-04-8.47252E-05 2.35089E-03-8.51248E-04 1.79529E-04-1.41089E-04
 -1        16 5.24991E-03 5.90567E-03 9.46696E-03-3.54263E-04-2.73059E-04 3.90016E-05
 -1        17-1.88520E-02-1.75542E-02-1.39789E-02 6.52348E-06 8.82357E-05 3.27264E-04
 -1        18-9.31908E-04-3.92729E-04 2.55728E-03-1.56212E-04 1.18694E-04-4.03434E-04
 -1        19-2.93142E-02-2.80328E-02-2.37247E-02 3.93493E-04-1.57644E-04-1.59872E-04
 -1        20-1.63528E-02-1.81109E-02-1.42358E-02 6.91456E-04 2.62515E-04-4.28642E-04
 -1        21 9.16918E-04-6.87351E-04 2.32439E-03-5.92652E-04 2.23903E-04 3.63572E-04
 -1        22 5.16670E-03 6.14425E-03 8.33667E-03-5.71943E-04-1.15405E-04 4.91984E-04
 -1        23-1.73115E-02-1.78181E-02-1.41723E-02 1.27834E-04 2.41940E-05-6.17690E-04
 -1        24 4.07692E-04-5.90404E-04 2.54702E-03 1.22223E-04 6.10856E-05 2.38473E-04
 -1        25 5.24699E-03 5.55436E-03 8.95302E-03-5.67903E-04-1.18307E-04 6.50042E-04
 -1        26-2.88985E-02-2.87249E-02-2.33070E-02 5.55943E-04-9.12305E-05-1.45087E-04
 -1        27 4.83555E-03 6.59265E-03 8.73815E-03-2.97394E-05-1.24515E-06 6.53361E-04
 -1        28-2.97344E-02-2.77043E-02-2.36342E-02-2.69374E-05-4.45638E-05-4.69226E-05
 -1        29-1.83753E-02-1.77840E-02-1.39925E-02 4.33005E-04 1.26326E-04 7.06858E-05
 -1        30-7.15872E-03-7.60745E-03-4.64148E-03 2.82103E-04 6.66053E-05 8.52213E-06
 -1        31-8.32494E-04-3.18263E-04 2.45780E-03-3.20779E-04 1.39363E-04-1.30352E-04
 -1        32-1.72402E-02-1.74213E-02-1.42428E-02 8.19485E-04 5.43258E-05-7.08571E-04
 -1        33 6.10481E-04-3.51966E-04 2.58042E-03-4.82800E-04 1.86366E-04 3.67359E-04
 -1        34-6.14919E-03-7.43040E-03-3.86422E-03 1.70018E-04 2.08597E-05-5.03527E-04
 -1        35-1.71325E-02-1.79459E-02-1.36947E-02 1.04301E-03-2.09733E-05-7.70975E-04
 -1        36 4.75562E-04-2.94182E-04 2.73068E-03-5.92630E-04 7.83547E-05 5.02849E-04
 -1        37-5.57812E-03-7.45427E-03-4.29562E-03 4.68840E-04-3.50634E-05-1.78183E-04
 -1        38-1.82257E-02-1.76914E-02-1.36658E-02-5.27100E-05-7.75456E-06-3.94908E-04
 -1        39-5.66527E-04-5.05363E-04 2.94737E-03 1.24419E-04 7.77954E-05 1.90790E-04
 -1        40-7.35581E-03-7.80177E-03-4.26078E-03 1.66618E-05-4.34116E-05-1.70019E-04
 -1        41 4.65164E-03 5.94737E-03 8.79929E-03-4.01058E-04-1.75304E-04 4.17123E-04
 -1        42-2.93581E-02-2.80342E-02-2.33769E-02 4.69119E-04-2.65222E-04-2.30012E-04
 -1        43-7.18779E-03-7.29410E-03-4.25622E-03 2.29090E-04 8.78445E-05-1.06614E-04
 -1        44-1.81163E-02-1.74950E-02-1.37302E-02 6.59207E-04 8.52521E-06-5.96172E-04
 -1        45-1.64151E-04-2.47214E-04 2.83648E-03-3.94655E-04 1.16546E-04 2.81732E-04
 -3
    1PSTEP                        44          11           1          
  100CL  111 11.00000000          45                     0   11           1
 -4  ERROR       1    1
 -5  STR(%)      1    1    0    0
 -1         1 3.43163E+01
 -1         2 3.43163E+01
 -1         3 2.72676E+01
 -1         4 3.43163E+01
 -1         5 1.89128E+01
 -1         6 3.65088E+01
 -1         7 3.65088E+01
 -1         8 3.65088E+01
 -1         9 1.44596E+01
 -1        10 2.01242E+01
 -1        11 3.65088E+01
 -1        12 3.58152E+01
 -1        13 3.65088E+01
 -1        14 2.54842E+01
 -1        15 2.43879E+01
 -1        16 3.43163E+01
 -1        17 2.83165E+01
 -1        18 2.72203E+01
 -1        19 2.77108E+01
 -1        20 2.77108E+01
 -1        21 3.54125E+01
 -1        22 3.07919E+01
 -1        23 3.61620E+01
 -1        24 3.15414E+01
 -1        25 3.43163E+01
 -1        26 2.77108E+01
 -1        27 3.07919E+01
 -1        28 3.65088E+01
 -1        29 2.83165E+01
 -1        30 1.72919E+01
 -1        31 2.72203E+01
 -1        32 3.65088E+01
 -1        33 3.18882E+01
 -1        34 3.61620E+01
 -1        35 3.65088E+01
 -1        36 3.54125E+01
 -1        37 2.54842E+01
 -1        38 3.61620E+01
 -1        39 3.50657E+01
 -1        40 2.79697E+01
 -1        41 3.43163E+01
 -1        42 3.65088E+01
 -1        43 2.83165E+01
 -1        44 3.65088E+01
 -1        45 3.54125E+01
 -3
    1PSTEP                        45          12           1          
  100CL  112 12.00000000          45                     0   12           1
 -4  DISP        4    1
 -5  D1          1    2    1    0
 -5  D2          1    2    2    0
 -5  D3          1    2    3    0
 -5  ALL         1    2    0    0    1ALL
 -1         1-7.57834E+00 2.65563E+00-4.02748E+00
 -1         2-3.61279E+00 2.54750E+00 0.00000E+00
 -1         3-3.50976E+00 0.00000E+00-3.93150E+00
 -1         4 0.00000E+00 0.00000E+00 0.00000E+00
 -1         5 2.05295E+00-1.49510E+01 1.22991E+01
 -1         6 6.35049E+00-1.51206E+01 0.00000E+00
 -1         7 6.75273E+00 0.00000E+00 1.24979E+01
 -1         8 1.14236E+01 0.00000E+00 0.00000E+00
 -1         9-3.29314E+00-4.69237E+00 0.00000E+00
 -1        10 1.05990E+00 0.00000E+00 0.00000E+00
 -1        11-7.35454E+00-4.60490E+00 3.04815E+00
 -1        12-3.04018E+00 0.00000E+00 3.02077E+00
 -1        13 1.00899E+01-7.51189E+00 0.00000E+00
 -1        14 7.75671E-02-9.83467E+00 0.00000E+00
 -1        15-4.27675E+00-7.56498E-01 0.00000E+00
 -1        16-9.56789E-01 1.29737E+00 0.00000E+00
 -1        17 4.87073E+00 0.00000E+00 0.00000E+00
 -1        18-3.47885E-01 0.00000E+00 0.00000E+00
 -1        19 5.69889E+00-7.41626E+00 1.23368E+01
 -1        20-4.11841E+00-9.84144E+00 7.85112E+00
 -1        21-8.08977E+00-9.05473E-01-5.84291E-01
 -1        22-4.63180E+00 1.38154E+00-3.97640E+00
 -1        23 4.07696E-01 0.00000E+00 7.83940E+00
 -1        24-4.06207E+00 0.00000E+00-7.20571E-01
 -1        25-4.75679E+00 2.59105E+00-2.06715E+00
 -1        26 5.33175E+00-1.49903E+01 6.13808E+00
 -1        27-9.53521E-01 0.00000E+00-1.99918E+00
 -1        28 1.02099E+01 0.00000E+00 6.21032E+00
 -1        29 3.70697E+00-4.88003E+00 0.00000E+00
 -1        30 4.42499E-03-2.36341E+00 0.00000E+00
 -1        31-1.37398E+00-3.97848E-01 0.00000E+00
 -1        32-6.00621E-01-4.90389E+00 7.83546E+00
 -1        33-5.09733E+00-4.34635E-01-6.85468E-01
 -1        34-4.09783E+00-2.33423E+00 3.03069E+00
 -1        35-8.46291E-01-9.82733E+00 3.90242E+00
 -1        36-5.24524E+00-8.07014E-01-3.09864E-01
 -1        37-4.27466E+00-4.68390E+00 1.57151E+00
 -1        38 3.76599E+00 0.00000E+00 3.91037E+00
 -1        39-1.29566E+00 0.00000E+00-3.73736E-01
 -1        40 4.87573E-02 0.00000E+00 1.55667E+00
 -1        41-1.98345E+00 1.37832E+00-2.06902E+00
 -1        42 8.97598E+00-7.44845E+00 6.16573E+00
 -1        43-1.04015E+00-2.35782E+00 1.54668E+00
 -1        44 2.65196E+00-4.88785E+00 3.89658E+00
 -1        45-2.32878E+00-4.14699E-01-3.28414E-01
 -3
    1PSTEP                        46          12           1          
  100CL  112 12.00000000          45                     0   12           1
 -4  STRESS      6    1
 -5  SXX         1    4    1    1
 -5  SYY         1    4    2    2
 -5  SZZ         1    4    3    3
 -5  SXY         1    4    1    2
 -5  SYZ         1    4    2    3
 -5  SZX         1    4    3    1
 -1         1 2.87112E-02 2.81444E-01 1.05819E-01-1.60411E-01 3.34052E-02 2.49483E-02
 -1         2 2.12144E-01 2.53494E-01-3.03459E-01-2.50046E-01-3.58718E-02 6.26228E-02
 -1         3 2.71500E-01 6.58742E-01 9.77648E-02-9.82378E-02 1.53962E-02 2.48074E-01
 -1         4 4.48250E-02 1.31879E-01-1.91509E-01-6.02514E-02-3.17989E-02 7.10803E-02
 -1         5-9.71257E-01-2.83835E-01-5.75994E-01-3.38287E-01 5.37773E-02 6.31031E-01
 -1         6 2.49431E-01-3.97117E-01-1.33438E+00-4.23704E-01-1.52229E-04 2.96068E-01
 -1         7-4.06992E-01-1.11523E+00-6.96721E-01-2.21157E-01-1.10044E-01 7.32509E-01
 -1         8 1.11306E+00-2.19701E-02-6.95978E-01-6.65676E-02-8.77104E-04 1.87140E-01
 -1         9 2.23331E-01-2.56943E-02 5.16345E-01 4.29457E-01-3.00175E-02-1.22739E-01
 -1        10 7.40350E-01 1.07653E-01 8.62135E-01 8.29278E-02 6.31039E-03-9.32523E-02
 -1        11-5.98667E-01 1.13654E-01 4.92478E-01 2.44154E-01-1.67024E-02-3.03717E-01
 -1        12-6.05851E-01 6.97864E-03 2.72631E-02 6.21062E-02 2.78021E-02-3.53862E-01
 -1        13-3.07000E-02-6.03700E-01-1.99383E+00-1.59294E-01 1.52810E-01 2.40762E-01
 -1        14 2.12365E-01 3.16672E-01 1.25543E+00-1.74387E-01-1.02670E-01-2.24855E-01
 -1        15 2.19164E-01-1.53584E-01-4.87255E-01-4.99864E-02 3.02871E-02-1.50627E-01
 -1        16 2.97729E-01 2.42300E-01 1.38849E-01-1.08339E-01-1.09163E-01 1.34584E-01
 -1        17 1.01587E+00 7.39944E-01 8.96283E-01-3.58867E-02-1.99009E-02-2.24686E-01
 -1        18 5.79801E-02-4.98439E-01-2.11784E-01 2.00018E-02 3.27774E-02-1.15247E-01
 -1        19-6.12680E-01-9.82906E-01-7.29721E-01-3.80981E-01-6.26785E-02 7.19970E-01
 -1        20-1.18131E+00 7.52845E-01 1.18377E+00 1.85596E-01 7.91015E-02-1.15910E-01
 -1        21-3.69463E-01-5.93184E-01-4.04783E-01 1.59906E-01 7.75920E-02-3.77258E-01
 -1        22 1.85320E-01 6.52745E-01 3.39363E-01-1.91250E-01 3.09746E-02 1.86696E-01
 -1        23-7.62155E-01 5.73674E-01 5.46808E-01 1.66132E-01-8.80236E-02 1.25965E-01
 -1        24-3.94258E-01-4.09769E-01-2.03934E-01 7.42312E-02 2.70345E-02-2.16300E-01
 -1        25 3.84229E-01 5.60166E-01 1.84811E-01-2.64006E-01 3.55522E-02 1.37328E-01
 -1        26-1.75044E-01-4.51858E-01-1.78251E+00-4.63249E-01-4.10231E-02 7.02413E-01
 -1        27 3.03298E-01 6.49302E-01-1.12610E-01-1.12493E-01 1.10762E-02 1.90711E-01
 -1        28 3.64444E-01-8.74572E-01-8.58977E-01-1.25269E-01-7.06882E-02 6.72322E-01
 -1        29 8.62833E-01 5.24281E-01 1.18065E+00-1.47300E-01-2.98102E-02-1.39820E-01
 -1        30 5.10730E-01 3.66869E-02 5.78625E-01 3.78390E-01-1.23026E-02-5.85316E-02
 -1        31 2.62451E-02-2.55114E-01-4.40049E-01-3.94475E-02 9.36253E-03-5.21068E-02
 -1        32-7.32832E-01 3.80816E-01 8.70061E-01 2.70060E-02-1.01876E-01 6.68429E-02
 -1        33-3.11549E-01-3.78259E-01-1.21781E-01 1.00949E-01 4.92925E-02-2.09438E-01
 -1        34-7.65955E-01-2.59508E-02 6.51835E-02 1.41279E-02 3.30975E-03-3.44063E-01
 -1        35-1.26629E-01 4.32737E-01 4.59248E-01-2.29605E-02-7.53605E-02 1.36822E-01
 -1        36-1.17905E-02-1.78321E-01-6.01318E-01 3.62681E-02 4.38439E-02-2.26248E-01
 -1        37-1.73128E-01-5.64518E-02 1.73529E-01 4.13739E-01-2.61103E-02 2.28899E-02
 -1        38 7.50909E-01 6.65343E-01 5.04001E-01 5.66682E-02-6.79241E-02 2.91722E-02
 -1        39-3.40903E-01-5.27890E-01-5.18453E-01 8.56983E-02 5.29426E-02-2.32524E-01
 -1        40 1.68126E-01 3.02425E-02 3.77528E-01 1.90969E-02 3.73945E-02-1.08739E-01
 -1        41 8.26952E-02 5.20142E-01 1.45281E-01-2.08558E-01-1.38864E-02 1.19931E-01
 -1        42-5.69703E-03-1.39268E+00-2.21391E+00-4.44837E-01-6.76361E-02 7.19009E-01
 -1        43 2.49729E-01 4.37290E-02 4.55734E-01 1.35630E-01-1.46231E-02-1.56078E-02
 -1        44 2.67262E-01 5.39088E-01 4.62973E-01-6.42150E-03-1.03096E-01 8.70614E-02
 -1        45-2.11521E-01-3.99244E-01-4.14046E-01 9.08168E-02 4.01820E-02-2.71132E-01
 -3
    1PSTEP                        47          12           1          
  100CL  112 12.00000000          45                     0   12           1
 -4  TOSTRAIN    6    1
 -5  EXX         1    4    1    1
 -5  EYY         1    4    2    2
 -5  EZZ         1    4    3    3
 -5  EXY         1    4    1    2
 -5  EYZ         1    4    2    3
 -5  EZX         1    4    3    1
 -1         1 4.54812E-03 4.74414E-03 7.51179E-03-6.01189E-04-1.31985E-04 4.91592E-04
 -1         2 5.26505E-03 5.44258E-03 8.54423E-03-7.17851E-04-9.72402E-05 1.76325E-04
 -1         3 4.77425E-03 5.73689E-03 7.59554E-03-1.21037E-04 1.47123E-05 7.13424E-04
 -1         4 3.98850E-03 5.61353E-03 8.50262E-03-5.86759E-05-7.90725E-05 8.27573E-05
 -1         5-3.04947E-02-3.03757E-02-2.46897E-02 1.87993E-04 6.05750E-05 2.93728E-04
 -1         6-3.05477E-02-3.04853E-02-2.47705E-02 5.14413E-04-1.47222E-04-4.65599E-05
 -1         7-3.11517E-02-2.95984E-02-2.51263E-02 9.00365E-05-2.08819E-04 8.25239E-05
 -1         8-3.17069E-02-2.98733E-02-2.49227E-02-2.06615E-04-3.63735E-05 3.39219E-04
 -1         9-7.45348E-03-9.24681E-03-6.47571E-03 4.83474E-04 5.36056E-05-1.35305E-04
 -1        10-9.75363E-03-9.23782E-03-6.32199E-03 6.14730E-05 1.84979E-04 3.46421E-06
 -1        11-7.55119E-03-8.99678E-03-5.88534E-03 4.09966E-04 1.42360E-04-4.47458E-04
 -1        12-8.21914E-03-9.46395E-03-5.71675E-03 8.37668E-05 1.22869E-05-5.27649E-04
 -1        13-3.10256E-02-3.02410E-02-2.48039E-02 1.44307E-04-9.10211E-05 1.67972E-04
 -1        14-1.92486E-02-1.97495E-02-1.57993E-02 9.06493E-04 5.58618E-05-2.50630E-04
 -1        15-6.40534E-04-1.36563E-03 1.04974E-03-7.93264E-04 1.71571E-04-1.61371E-04
 -1        16 4.49040E-03 5.09501E-03 8.56955E-03-3.50236E-04-2.75264E-04 6.64300E-05
 -1        17-2.06859E-02-1.95495E-02-1.57516E-02-6.67172E-06 7.41371E-05 2.16536E-04
 -1        18-2.12401E-03-1.68857E-03 1.26651E-03-1.41330E-04 1.17484E-04-3.93880E-04
 -1        19-3.10063E-02-2.99017E-02-2.47298E-02 1.88189E-04-1.72179E-04 1.83899E-04
 -1        20-1.87772E-02-1.99869E-02-1.58405E-02 6.97759E-04 2.74002E-04-4.28187E-04
 -1        21-4.48525E-04-1.95582E-03 1.03934E-03-5.13020E-04 2.23156E-04 2.55501E-04
 -1        22 4.36414E-03 5.31125E-03 7.49575E-03-5.67543E-04-1.02422E-04 4.93996E-04
 -1        23-1.95465E-02-1.97425E-02-1.58705E-02 1.82422E-04-1.54260E-05-4.98138E-04
 -1        24-9.41031E-04-1.86565E-03 1.25361E-03 1.28544E-04 6.26600E-05 1.69324E-04
 -1        25 4.45603E-03 4.75644E-03 8.05492E-03-5.74752E-04-1.04395E-04 6.33551E-04
 -1        26-3.05213E-02-3.04041E-02-2.45980E-02 2.97998E-04-1.01393E-04 1.89417E-04
 -1        27 4.11221E-03 5.77031E-03 7.86298E-03-4.99938E-05-1.26604E-08 6.50075E-04
 -1        28-3.13752E-02-2.97785E-02-2.49956E-02-8.53168E-05-7.60128E-05 2.53136E-04
 -1        29-2.02904E-02-1.98004E-02-1.57000E-02 3.34879E-04 1.05041E-04 1.72149E-05
 -1        30-8.90700E-03-9.38464E-03-6.37641E-03 3.72960E-04 5.93522E-05-9.20160E-06
 -1        31-2.03456E-03-1.59465E-03 1.14903E-03-3.05880E-04 1.31731E-04-1.29237E-04
 -1        32-1.94751E-02-1.94372E-02-1.59001E-02 7.53457E-04 9.18111E-06-6.08260E-04
 -1        33-7.41905E-04-1.63994E-03 1.29446E-03-4.22466E-04 1.83016E-04 2.89599E-04
 -1        34-8.16497E-03-9.20969E-03-5.75619E-03 1.55611E-04 2.17762E-05-5.61554E-04
 -1        35-1.92658E-02-1.99140E-02-1.55217E-02 9.35360E-04-4.67265E-05-6.50609E-04
 -1        36-8.32541E-04-1.56053E-03 1.38154E-03-5.36681E-04 8.26733E-05 4.10769E-04
 -1        37-7.54247E-03-9.23532E-03-6.09623E-03 5.51602E-04-3.78230E-05-1.50006E-04
 -1        38-2.01267E-02-1.96784E-02-1.55089E-02-2.89962E-05-3.51202E-05-3.44066E-04
 -1        39-1.82669E-03-1.78589E-03 1.60058E-03 1.32822E-04 8.30980E-05 1.23001E-04
 -1        40-9.13638E-03-9.55831E-03-6.04148E-03 2.12489E-05-2.75234E-05-1.83195E-04
 -1        41 3.88240E-03 5.12187E-03 7.91279E-03-4.11288E-04-1.65755E-04 4.13861E-04
 -1        42-3.08561E-02-2.99587E-02-2.47276E-02 2.23831E-04-2.75105E-04 1.23483E-04
 -1        43-8.98162E-03-9.10778E-03-6.05516E-03 2.48864E-04 7.14873E-05-9.38842E-05
 -1        44-2.00933E-02-1.94941E-02-1.55525E-02 5.98015E-04-2.92322E-05-5.12249E-04
 -1        45-1.44301E-03-1.53884E-03 1.50427E-03-3.43135E-04 1.17240E-04 1.97867E-04
 -3
    1PSTEP                        48          12           1          
  100CL  112 12.00000000          45                     0   12           1
 -4  ERROR       1    1
 -5  STR(%)      1    1    0    0
 -1         1 3.05830E+01
 -1         2 3.05830E+01
 -1         3 3.05760E+01
 -1         4 3.05830E+01
 -1         5 1.33449E+01
 -1         6 3.34329E+01
 -1         7 3.34329E+01
 -1         8 3.34329E+01
 -1         9 1.24300E+01
 -1        10 2.11864E+01
 -1        11 3.34329E+01
 -1        12 3.15857E+01
 -1        13 3.34329E+01
 -1        14 2.29315E+01
 -1        15 2.15065E+01
 -1        16 3.05830E+01
 -1        17 2.73097E+01
 -1        18 2.58847E+01
 -1        19 2.33889E+01
 -1        20 2.33889E+01
 -1        21 3.20080E+01
 -1        22 3.05795E+01
 -1        23 3.25093E+01
 -1        24 3.10809E+01
 -1        25 3.05830E+01
 -1        26 2.33889E+01
 -1        27 3.05795E+01
 -1        28 3.34329E+01
 -1        29 2.73097E+01
 -1        30 1.68082E+01
 -1        31 2.58847E+01
 -1        32 3.34329E+01
 -1        33 3.20045E+01
 -1        34 3.25093E+01
 -1        35 3.34329E+01
 -1        36 3.20080E+01
 -1        37 2.29315E+01
 -1        38 3.25093E+01
 -1        39 3.10843E+01
 -1        40 2.63861E+01
 -1        41 3.05830E+01
 -1        42 3.34329E+01
 -1        43 2.73097E+01
 -1        44 3.34329E+01
 -1        45 3.20080E+01
 -3
    1PSTEP                        49          13           1          
  100CL  113 13.00000000          45                     0   13           1
 -4  DISP        4    1
 -5  D1          1    2    1    0
 -5  D2          1    2    2    0
 -5  D3          1    2    3    0
 -5  ALL         1    2    0    0    1ALL
 -1         1-7.89648E+00 2.23292E+00-3.57027E+00
 -1         2-3.81368E+00 2.14004E+00 0.00000E+00
 -1         3-3.67185E+00 0.00000E+00-3.48965E+00
 -1         4 0.00000E+00 0.00000E+00 0.00000E+00
 -1         5 3.57863E+00-1.56797E+01 1.26787E+01
 -1         6 7.77955E+00-1.58853E+01 0.00000E+00
 -1         7 8.30150E+00 0.00000E+00 1.29165E+01
 -1         8 1.27830E+01 0.00000E+00 0.00000E+00
 -1         9-2.85173E+00-5.54544E+00 0.00000E+00
 -1        10 1.62791E+00 0.00000E+00 0.00000E+00
 -1        11-6.98704E+00-5.46062E+00 3.90508E+00
 -1        12-2.53082E+00 0.00000E+00 3.86626E+00
 -1        13 1.14670E+01-7.89965E+00 0.00000E+00
 -1        14 1.01833E+00-1.07474E+01 0.00000E+00
 -1        15-4.22128E+00-1.38691E+00 0.00000E+00
 -1        16-1.00297E+00 1.08976E+00 0.00000E+00
 -1        17 5.84842E+00 0.00000E+00 0.00000E+00
 -1        18-1.14394E-01 0.00000E+00 0.00000E+00
 -1        19 7.17465E+00-7.81277E+00 1.27227E+01
 -1        20-3.06108E+00-1.07131E+01 8.58660E+00
 -1        21-8.13417E+00-1.52912E+00 5.48737E-02
 -1        22-4.83123E+00 1.16731E+00-3.52772E+00
 -1        23 1.47204E+00 0.00000E+00 8.60346E+00
 -1        24-3.95864E+00 0.00000E+00-7.92983E-02
 -1        25-4.98017E+00 2.17541E+00-1.83247E+00
 -1        26 6.68176E+00-1.57249E+01 6.37355E+00
 -1        27-9.81328E-01 0.00000E+00-1.77177E+00
 -1        28 1.15881E+01 0.00000E+00 6.43693E+00
 -1        29 4.67553E+00-5.32437E+00 0.00000E+00
 -1        30 5.47398E-01-2.78759E+00 0.00000E+00
 -1        31-1.17480E+00-7.16249E-01 0.00000E+00
 -1        32 4.56206E-01-5.33331E+00 8.57584E+00
 -1        33-5.02978E+00-7.49591E-01-4.40287E-02
 -1        34-3.62079E+00-2.75784E+00 3.88214E+00
 -1        35 1.03640E-01-1.07146E+01 4.26727E+00
 -1        36-5.20473E+00-1.43582E+00 1.62712E-02
 -1        37-3.84441E+00-5.53375E+00 1.98827E+00
 -1        38 4.76800E+00 0.00000E+00 4.30446E+00
 -1        39-1.08622E+00 0.00000E+00-5.17537E-02
 -1        40 6.12401E-01 0.00000E+00 1.96665E+00
 -1        41-2.06370E+00 1.16506E+00-1.83596E+00
 -1        42 1.03117E+01-7.84490E+00 6.40173E+00
 -1        43-5.12558E-01-2.78173E+00 1.96612E+00
 -1        44 3.62973E+00-5.33614E+00 4.27441E+00
 -1        45-2.15402E+00-7.31558E-01-4.17953E-03
 -3
    1PSTEP                        50          13           1          
  100CL  113 13.00000000          45                     0   13           1
 -4  STRESS      6    1
 -5  SXX         1    4    1    1
 -5  SYY         1    4    2    2
 -5  SZZ         1    4    3    3
 -5  SXY         1    4    1    2
 -5  SYZ         1    4    2    3
 -5  SZX         1    4    3    1
 -1         1-1.32574E-01 1.52545E-01-3.82446E-02-5.43518E-02 7.24219E-02-9.29298E-02
 -1         2 1.26865E-01 1.31737E-01-7.08935E-01-1.61266E-01-2.75911E-02 3.24230E-02
 -1         3 2.14674E-01 3.12155E-01 3.01097E-02-9.01551E-02 1.40272E-02 1.58664E-01
 -1         4 4.88331E-01-1.33116E-01-5.65294E-01-5.56750E-02-2.57453E-02 6.78523E-02
 -1         5-1.27608E+00-3.97969E-01-7.38869E-01-4.65977E-01 6.70764E-02 8.07558E-01
 -1         6 2.47094E-01-6.40557E-01-1.94564E+00-6.13242E-01 1.57074E-02 3.97090E-01
 -1         7-4.44871E-01-1.73490E+00-9.15877E-01-2.98941E-01-1.24420E-01 9.62808E-01
 -1         8 1.63231E+00-2.97697E-01-1.11980E+00-5.70684E-02 2.79384E-03 2.01421E-01
 -1         9-1.49431E-01 9.19063E-02 8.95046E-01 4.94356E-01-4.70581E-02-1.39736E-01
 -1        10 1.48424E+00 4.80660E-01 1.51428E+00 9.74513E-02-2.25645E-02-1.20391E-01
 -1        11-1.07971E+00 3.56746E-01 7.82646E-01 2.71869E-01-4.78315E-02-3.43339E-01
 -1        12-8.85845E-01 3.31397E-01 1.05647E-01 6.74627E-02 3.63610E-02-3.89888E-01
 -1        13-8.67812E-03-9.43421E-01-2.76117E+00-2.20921E-01 2.14007E-01 2.97948E-01
 -1        14 1.97445E-02 3.12099E-01 1.54915E+00-3.53897E-01-1.44901E-01-2.68999E-01
 -1        15 1.73257E-02-2.23712E-01-4.34719E-01 9.29794E-02 5.38483E-03-1.70655E-01
 -1        16 4.14821E-01 5.20642E-02-3.45136E-01-4.88672E-02-8.60626E-02 1.54061E-01
 -1        17 1.57272E+00 9.26626E-01 1.15479E+00-4.58289E-02-3.68448E-02-3.31581E-01
 -1        18 4.46829E-01-4.67578E-01-8.09453E-02 5.54377E-02 2.16629E-02-7.50088E-02
 -1        19-6.84231E-01-1.43015E+00-9.32668E-01-5.23024E-01-6.39751E-02 9.38079E-01
 -1        20-1.88127E+00 1.00524E+00 1.51799E+00 1.56476E-01 7.23907E-02-9.63680E-02
 -1        21-8.46508E-01-5.19328E-01-2.67142E-01 3.20155E-01 5.97664E-02-5.52317E-01
 -1        22 1.28510E-01 3.26914E-01 2.35847E-01-1.04414E-01 6.16855E-02 1.20148E-01
 -1        23-1.12630E+00 7.24511E-01 6.95093E-01 2.01845E-01-1.15459E-01 2.33429E-01
 -1        24-7.42957E-01-4.09440E-01-1.50032E-01 7.50186E-02 2.18704E-02-3.28254E-01
 -1        25 3.33723E-01 4.61927E-01-2.38903E-01-1.97196E-01 6.85950E-02 2.05483E-02
 -1        26-2.07137E-01-6.18258E-01-2.37168E+00-6.44670E-01-4.23882E-02 9.14180E-01
 -1        27 6.03672E-01 3.21358E-01-3.36673E-01-1.26886E-01 1.22149E-02 9.80695E-02
 -1        28 6.10589E-01-1.39987E+00-1.20859E+00-1.50901E-01-8.63429E-02 8.61520E-01
 -1        29 1.27824E+00 6.85335E-01 1.51078E+00-2.31685E-01-5.50913E-02-1.92585E-01
 -1        30 7.96017E-01 3.20257E-01 1.04611E+00 4.37934E-01-2.45224E-02-7.40288E-02
 -1        31 3.18847E-01-1.89028E-01-3.38411E-01 1.77313E-02-1.00483E-02-4.75084E-02
 -1        32-1.10837E+00 3.86229E-01 1.11689E+00-6.38455E-02-1.38580E-01 1.69145E-01
 -1        33-7.06331E-01-4.58278E-01-6.18781E-02 2.15267E-01 2.88756E-02-3.41174E-01
 -1        34-1.13872E+00 1.87195E-01 1.48260E-01 3.39647E-03 2.27606E-03-3.72918E-01
 -1        35-3.66577E-01 5.41932E-01 4.57302E-01-1.51036E-01-9.46347E-02 2.68482E-01
 -1        36-2.55420E-01-1.96642E-01-7.33056E-01 1.59081E-01 4.18195E-02-3.78858E-01
 -1        37-6.70469E-01 2.64792E-02 3.04354E-01 4.64196E-01-2.73495E-02 4.89974E-02
 -1        38 1.02681E+00 8.19020E-01 5.27717E-01 8.09984E-02-8.65841E-02 8.69345E-02
 -1        39-2.05455E-01-5.10015E-01-6.28271E-01 9.00280E-02 5.24023E-02-3.33795E-01
 -1        40 4.08947E-01 3.62218E-01 6.84647E-01 2.13056E-02 5.46923E-02-1.20050E-01
 -1        41 2.57956E-01 2.68114E-01-1.91366E-01-1.65657E-01 1.81518E-02 5.19996E-02
 -1        42 8.76291E-02-1.96867E+00-2.91927E+00-6.11989E-01-6.04606E-02 9.43113E-01
 -1        43 5.06998E-01 2.72419E-01 8.15585E-01 1.43735E-01-3.27782E-02-1.23986E-02
 -1        44 3.75443E-01 6.02333E-01 4.90609E-01-9.17683E-02-1.32932E-01 1.86445E-01
 -1        45-2.11970E-01-4.72462E-01-5.04097E-01 1.84292E-01 3.09499E-02-3.94184E-01
 -3
    1PSTEP                        51          13           1          
  100CL  113 13.00000000          45                     0   13           1
 -4  TOSTRAIN    6    1
 -5  EXX         1    4    1    1
 -5  EYY         1    4    2    2
 -5  EZZ         1    4    3    3
 -5  EXY         1    4    1    2
 -5  EYZ         1    4    2    3
 -5  EZX         1    4    3    1
 -1         1 3.72783E-03 3.93090E-03 6.65825E-03-5.74890E-04-1.10904E-04 4.51071E-04
 -1         2 4.48584E-03 4.65664E-03 7.62643E-03-7.08657E-04-9.64800E-05 1.79249E-04
 -1         3 3.99983E-03 4.89860E-03 6.76370E-03-1.33622E-04 1.52937E-05 7.05012E-04
 -1         4 3.31586E-03 4.77368E-03 7.58541E-03-6.91428E-05-7.93740E-05 1.02960E-04
 -1         5-3.19222E-02-3.15756E-02-2.50836E-02-3.31581E-05 8.67184E-05 6.31962E-04
 -1         6-3.19202E-02-3.20505E-02-2.59168E-02 2.13738E-04-1.33315E-04 1.50032E-04
 -1         7-3.24576E-02-3.12920E-02-2.57390E-02-5.73020E-05-2.50267E-04 4.99721E-04
 -1         8-3.28835E-02-3.15971E-02-2.61031E-02-2.21273E-04-3.68683E-05 4.09586E-04
 -1         9-9.36444E-03-1.09718E-02-8.09589E-03 5.89978E-04 3.80803E-05-1.64597E-04
 -1        10-1.13143E-02-1.09865E-02-7.94599E-03 8.67763E-05 1.59371E-04-3.44209E-05
 -1        11-9.69710E-03-1.07814E-02-7.72166E-03 4.51704E-04 1.13146E-04-5.04955E-04
 -1        12-1.01906E-02-1.11413E-02-7.56158E-03 9.63422E-05 2.47067E-05-5.98970E-04
 -1        13-3.22731E-02-3.17703E-02-2.59389E-02 2.89086E-05-1.36956E-06 2.99152E-04
 -1        14-2.12200E-02-2.16324E-02-1.72119E-02 6.86165E-04-4.21380E-06-3.20582E-04
 -1        15-1.92770E-03-2.62308E-03-2.07945E-04-7.10685E-04 1.59267E-04-1.83059E-04
 -1        16 3.74706E-03 4.28009E-03 7.64749E-03-3.39643E-04-2.73393E-04 9.83104E-05
 -1        17-2.22654E-02-2.13377E-02-1.72518E-02-2.22870E-05 5.61750E-05 8.10748E-05
 -1        18-3.26230E-03-2.95891E-03 1.77004E-05-1.21171E-04 1.14108E-04-3.75943E-04
 -1        19-3.22365E-02-3.13591E-02-2.51467E-02-5.91427E-05-1.86982E-04 5.90595E-04
 -1        20-2.10889E-02-2.16271E-02-1.71403E-02 6.94904E-04 2.83622E-04-4.21345E-04
 -1        21-1.82252E-03-3.18863E-03-1.98359E-04-4.08688E-04 2.18614E-04 1.21392E-04
 -1        22 3.57096E-03 4.46584E-03 6.65921E-03-5.52934E-04-8.51207E-05 4.88431E-04
 -1        23-2.16212E-02-2.14431E-02-1.72812E-02 2.44620E-04-6.22986E-05-3.48590E-04
 -1        24-2.28661E-03-3.10844E-03 2.38683E-06 1.33996E-04 6.34793E-05 8.33673E-05
 -1        25 3.67521E-03 3.96242E-03 7.14050E-03-5.73528E-04-8.59207E-05 6.03416E-04
 -1        26-3.16763E-02-3.16281E-02-2.53572E-02-1.36559E-05-1.11989E-04 5.85002E-04
 -1        27 3.41842E-03 4.93016E-03 6.97928E-03-7.35832E-05 1.48109E-06 6.35565E-04
 -1        28-3.25389E-02-3.14819E-02-2.58329E-02-1.53610E-04-1.12286E-04 6.06533E-04
 -1        29-2.19722E-02-2.16103E-02-1.71232E-02 2.13365E-04 7.79773E-05-4.67371E-05
 -1        30-1.05863E-02-1.10908E-02-8.00729E-03 4.75970E-04 4.97254E-05-3.00449E-05
 -1        31-3.18662E-03-2.84301E-03-1.19370E-04-2.82744E-04 1.20453E-04-1.25609E-04
 -1        32-2.15505E-02-2.12520E-02-1.72617E-02 6.63554E-04-4.47521E-05-4.79855E-04
 -1        33-2.09528E-03-2.90149E-03 5.15871E-05-3.42831E-04 1.76005E-04 1.91390E-04
 -1        34-1.01752E-02-1.09211E-02-7.58452E-03 1.36866E-04 2.25323E-05-6.23249E-04
 -1        35-2.12236E-02-2.16649E-02-1.70906E-02 7.93361E-04-7.67188E-05-4.97617E-04
 -1        36-2.13126E-03-2.79727E-03 6.12686E-05-4.60441E-04 8.65024E-05 2.93271E-04
 -1        37-9.50162E-03-1.09485E-02-7.81008E-03 6.42711E-04-4.05161E-05-1.15084E-04
 -1        38-2.17951E-02-2.14545E-02-1.70971E-02-2.57606E-07-6.71588E-05-2.78610E-04
 -1        39-3.05142E-03-3.03628E-03 2.79544E-04 1.40702E-04 8.80889E-05 3.94473E-05
 -1        40-1.08503E-02-1.12369E-02-7.73244E-03 2.63670E-05-8.11347E-06-1.96858E-04
 -1        41 3.13716E-03 4.28861E-03 7.01462E-03-4.16854E-04-1.51560E-04 4.03193E-04
 -1        42-3.18574E-02-3.14814E-02-2.55562E-02-7.15454E-05-2.82803E-04 5.42592E-04
 -1        43-1.07139E-02-1.08618E-02-7.76767E-03 2.69380E-04 5.08631E-05-7.80687E-05
 -1        44-2.18526E-02-2.12879E-02-1.71153E-02 5.16236E-04-7.37980E-05-4.04813E-04
 -1        45-2.69655E-03-2.80640E-03 2.02300E-04-2.75410E-04 1.16150E-04 9.37976E-05
 -3
    1PSTEP                        52          13           1          
  100CL  113 13.00000000          45                     0   13           1
 -4  ERROR       1    1
 -5  STR(%)      1    1    0    0
 -1         1 3.04967E+01
 -1         2 2.27740E+01
 -1         3 3.04967E+01
 -1         4 3.09605E+01
 -1         5 1.01929E+01
 -1         6 3.12386E+01
 -1         7 3.12386E+01
 -1         8 3.12386E+01
 -1         9 2.12230E+01
 -1        10 3.09605E+01
 -1        11 3.12386E+01
 -1        12 3.09605E+01
 -1        13 3.12386E+01
 -1        14 2.62308E+01
 -1        15 2.19985E+01
 -1        16 2.68673E+01
 -1        17 3.10996E+01
 -1        18 3.09605E+01
 -1        19 2.07158E+01
 -1        20 2.07158E+01
 -1        21 3.08676E+01
 -1        22 3.04967E+01
 -1        23 3.10996E+01
 -1        24 3.07286E+01
 -1        25 2.66353E+01
 -1        26 2.07158E+01
 -1        27 3.07286E+01
 -1        28 3.12386E+01
 -1        29 3.10996E+01
 -1        30 2.60918E+01
 -1        31 2.68673E+01
 -1        32 3.12386E+01
 -1        33 3.08676E+01
 -1        34 3.10996E+01
 -1        35 3.12386E+01
 -1        36 2.70063E+01
 -1        37 2.62308E+01
 -1        38 3.10996E+01
 -1        39 3.09605E+01
 -1        40 3.09605E+01
 -1        41 3.07286E+01
 -1        42 3.12386E+01
 -1        43 3.10996E+01
 -1        44 3.12386E+01
 -1        45 3.10996E+01
 -3
    1PSTEP                        53          14           1          
  100CL  114 14.00000000          45                     0   14           1
 -4  DISP        4    1
 -5  D1          1    2    1    0
 -5  D2          1    2    2    0
 -5  D3          1    2    3    0
 -5  ALL         1    2    0    0    1ALL
 -1         1-8.14594E+00 1.80389E+00-3.10474E+00
 -1         2-3.99181E+00 1.73037E+00 0.00000E+00
 -1         3-3.80192E+00 0.00000E+00-3.04343E+00
 -1         4 0.00000E+00 0.00000E+00 0.00000E+00
 -1         5 5.12040E+00-1.62009E+01 1.27900E+01
 -1         6 9.13960E+00-1.64462E+01 0.00000E+00
 -1         7 9.79974E+00 0.00000E+00 1.30708E+01
 -1         8 1.39870E+01 0.00000E+00 0.00000E+00
 -1         9-2.39197E+00-6.36273E+00 0.00000E+00
 -1        10 2.16889E+00 0.00000E+00 0.00000E+00
 -1        11-6.54651E+00-6.28219E+00 4.71832E+00
 -1        12-1.99094E+00 0.00000E+00 4.66656E+00
 -1        13 1.27111E+01-8.18704E+00 0.00000E+00
 -1        14 1.95585E+00-1.15581E+01 0.00000E+00
 -1        15-4.14312E+00-2.00487E+00 0.00000E+00
 -1        16-1.04205E+00 8.80057E-01 0.00000E+00
 -1        17 6.75725E+00 0.00000E+00 0.00000E+00
 -1        18 1.10775E-01 0.00000E+00 0.00000E+00
 -1        19 8.60410E+00-8.11152E+00 1.28408E+01
 -1        20-1.91995E+00-1.14761E+01 9.18299E+00
 -1        21-8.10906E+00-2.13717E+00 6.74625E-01
 -1        22-4.98775E+00 9.48674E-01-3.07288E+00
 -1        23 2.55321E+00 0.00000E+00 9.23312E+00
 -1        24-3.82322E+00 0.00000E+00 5.44798E-01
 -1        25-5.16607E+00 1.75556E+00-1.59187E+00
 -1        26 7.96657E+00-1.62526E+01 6.48243E+00
 -1        27-9.97926E-01 0.00000E+00-1.54060E+00
 -1        28 1.28331E+01 0.00000E+00 6.53460E+00
 -1        29 5.59123E+00-5.71623E+00 0.00000E+00
 -1        30 1.07545E+00-3.19326E+00 0.00000E+00
 -1        31-9.73849E-01-1.02870E+00 0.00000E+00
 -1        32 1.54409E+00-5.70751E+00 9.17810E+00
 -1        33-4.92030E+00-1.05754E+00 5.79762E-01
 -1        34-3.10236E+00-3.16323E+00 4.68925E+00
 -1        35 1.06729E+00-1.14958E+01 4.56230E+00
 -1        36-5.12790E+00-2.05122E+00 3.34065E-01
 -1        37-3.38137E+00-6.34741E+00 2.38061E+00
 -1        38 5.72289E+00 0.00000E+00 4.63336E+00
 -1        39-8.73346E-01 0.00000E+00 2.62090E-01
 -1        40 1.16494E+00 0.00000E+00 2.35130E+00
 -1        41-2.12569E+00 9.47611E-01-1.59721E+00
 -1        42 1.15256E+01-8.14319E+00 6.51088E+00
 -1        43 1.45848E-02-3.18715E+00 2.36192E+00
 -1        44 4.57328E+00-5.73246E+00 4.58460E+00
 -1        45-1.96568E+00-1.04200E+00 3.11664E-01
 -3
    1PSTEP                        54          14           1          
  100CL  114 14.00000000          45                     0   14           1
 -4  STRESS      6    1
 -5  SXX         1    4    1    1
 -5  SYY         1    4    2    2
 -5  SZZ         1    4    3    3
 -5  SXY         1    4    1    2
 -5  SYZ         1    4    2    3
 -5  SZX         1    4    3    1
 -1         1-3.04766E-01 1.39112E-02-1.92442E-01 5.93777E-02 1.13927E-01-2.18867E-01
 -1         2 3.49818E-02-2.49952E-04-1.14333E+00-6.55917E-02-1.83482E-02 3.25246E-04
 -1         3 1.53289E-01-6.14542E-02-4.24685E-02-8.15350E-02 1.27304E-02 6.27403E-02
 -1         4 9.62182E-01-4.18306E-01-9.65944E-01-5.09500E-02-1.91237E-02 6.42057E-02
 -1         5-1.59879E+00-5.19173E-01-9.11268E-01-6.01361E-01 8.09836E-02 9.94240E-01
 -1         6 2.43570E-01-9.00735E-01-2.59679E+00-8.14692E-01 3.29954E-02 5.03886E-01
 -1         7-4.83987E-01-2.39488E+00-1.14804E+00-3.80962E-01-1.39156E-01 1.20673E+00
 -1         8 2.18401E+00-5.94965E-01-1.57358E+00-4.64966E-02 6.81234E-03 2.16059E-01
 -1         9-5.50673E-01 2.18930E-01 1.30143E+00 5.62409E-01-6.53497E-02-1.57487E-01
 -1        10 2.27963E+00 8.81804E-01 2.21235E+00 1.12802E-01-5.36790E-02-1.49119E-01
 -1        11-1.59281E+00 6.16455E-01 1.09138E+00 3.00772E-01-8.11376E-02-3.84803E-01
 -1        12-1.18379E+00 6.80582E-01 1.90323E-01 7.30456E-02 4.53927E-02-4.27431E-01
 -1        13 1.43004E-02-1.30581E+00-3.57726E+00-2.86091E-01 2.79226E-01 3.58127E-01
 -1        14-1.88250E-01 3.05354E-01 1.85903E+00-5.46297E-01-1.89604E-01-3.15391E-01
 -1        15-2.00423E-01-2.98985E-01-3.77826E-01 2.46600E-01-2.12485E-02-1.91426E-01
 -1        16 5.39019E-01-1.52614E-01-8.64006E-01 1.47032E-02-6.08559E-02 1.74484E-01
 -1        17 2.16568E+00 1.12366E+00 1.42843E+00-5.64744E-02-5.49819E-02-4.45391E-01
 -1        18 8.62698E-01-4.33589E-01 5.89212E-02 9.32454E-02 9.58870E-03-3.14580E-02
 -1        19-7.58256E-01-1.90495E+00-1.14726E+00-6.73398E-01-6.51008E-02 1.16891E+00
 -1        20-2.62712E+00 1.27223E+00 1.87115E+00 1.24169E-01 6.49188E-02-7.46803E-02
 -1        21-1.35542E+00-4.39071E-01-1.19410E-01 4.91385E-01 4.03911E-02-7.38619E-01
 -1        22 6.73308E-02-2.31335E-02 1.24593E-01-1.13328E-02 9.44944E-02 4.86801E-02
 -1        23-1.51381E+00 8.83855E-01 8.52111E-01 2.39497E-01-1.44334E-01 3.48351E-01
 -1        24-1.11474E+00-4.08277E-01-9.18734E-02 7.55536E-02 1.63226E-02-4.47500E-01
 -1        25 2.78723E-01 3.55270E-01-6.91795E-01-1.24992E-01 1.03794E-01-1.04118E-01
 -1        26-2.40353E-01-7.94650E-01-2.99562E+00-8.36999E-01-4.37356E-02 1.13804E+00
 -1        27 9.24200E-01-3.22255E-02-5.76112E-01-1.42159E-01 1.35394E-02-1.26399E-03
 -1        28 8.72645E-01-1.96031E+00-1.58037E+00-1.77569E-01-1.02654E-01 1.06172E+00
 -1        29 1.72072E+00 8.55932E-01 1.86020E+00-3.21731E-01-8.19598E-02-2.48621E-01
 -1        30 1.10026E+00 6.25422E-01 1.54741E+00 5.00530E-01-3.77338E-02-9.03473E-02
 -1        31 6.32771E-01-1.17705E-01-2.28807E-01 7.91654E-02-3.08446E-02-4.21651E-02
 -1        32-1.50806E+00 3.90234E-01 1.37769E+00-1.61501E-01-1.77434E-01 2.78743E-01
 -1        33-1.12783E+00-5.43382E-01 2.33621E-03 3.37535E-01 6.92905E-03-4.81581E-01
 -1        34-1.53556E+00 4.16864E-01 2.37620E-01-8.02953E-03 1.11736E-03-4.02865E-01
 -1        35-6.23070E-01 6.56672E-01 4.52923E-01-2.88483E-01-1.14900E-01 4.09278E-01
 -1        36-5.16222E-01-2.16161E-01-8.73079E-01 2.90800E-01 3.96326E-02-5.41733E-01
 -1        37-1.20363E+00 1.16239E-01 4.45373E-01 5.17012E-01-2.86597E-02 7.67140E-02
 -1        38 1.31955E+00 9.80881E-01 5.50293E-01 1.06869E-01-1.06309E-01 1.48972E-01
 -1        39-5.98724E-02-4.89986E-01-7.45312E-01 9.42830E-02 5.16432E-02-4.41682E-01
 -1        40 6.66587E-01 7.19909E-01 1.01401E+00 2.36053E-02 7.31377E-02-1.31936E-01
 -1        41 4.45293E-01-2.72480E-03-5.51298E-01-1.19368E-01 5.24100E-02-2.09568E-02
 -1        42 1.87896E-01-2.57956E+00-3.66584E+00-7.88841E-01-5.24018E-02 1.18002E+00
 -1        43 7.82277E-01 5.18479E-01 1.20113E+00 1.52117E-01-5.22695E-02-8.98534E-03
 -1        44 4.90360E-01 6.67236E-01 5.17531E-01-1.83459E-01-1.64558E-01 2.92946E-01
 -1        45-2.12099E-01-5.50254E-01-5.99998E-01 2.84327E-01 2.09526E-02-5.25417E-01
 -3
    1PSTEP                        55          14           1          
  100CL  114 14.00000000          45                     0   14           1
 -4  TOSTRAIN    6    1
 -5  EXX         1    4    1    1
 -5  EYY         1    4    2    2
 -5  EZZ         1    4    3    3
 -5  EXY         1    4    1    2
 -5  EYZ         1    4    2    3
 -5  EZX         1    4    3    1
 -1         1 2.90966E-03 3.11840E-03 5.80595E-03-5.35679E-04-8.44203E-05 3.96809E-04
 -1         2 3.70610E-03 3.86660E-03 6.68459E-03-6.87821E-04-9.41825E-05 1.80220E-04
 -1         3 3.23229E-03 4.04286E-03 5.93574E-03-1.46692E-04 1.58026E-05 6.85392E-04
 -1         4 2.67860E-03 3.91790E-03 6.64479E-03-8.06284E-05-7.86186E-05 1.25357E-04
 -1         5-3.29229E-02-3.23129E-02-2.48806E-02-2.92790E-04 1.16275E-04 1.02170E-03
 -1         6-3.28558E-02-3.32110E-02-2.65869E-02-1.42039E-04-1.15197E-04 3.79128E-04
 -1         7-3.33081E-02-3.26128E-02-2.57848E-02-2.29707E-04-2.95695E-04 9.83726E-04
 -1         8-3.35770E-02-3.29494E-02-2.68109E-02-2.35745E-04-3.69742E-05 4.87025E-04
 -1         9-1.12635E-02-1.26302E-02-9.60814E-03 7.08090E-04 1.92528E-05-1.96923E-04
 -1        10-1.27749E-02-1.26723E-02-9.46481E-03 1.15616E-04 1.27100E-04-7.83273E-05
 -1        11-1.18678E-02-1.25125E-02-9.49366E-03 4.96213E-04 7.72730E-05-5.67410E-04
 -1        12-1.21496E-02-1.27413E-02-9.34562E-03 1.09906E-04 3.89912E-05-6.76036E-04
 -1        13-3.30574E-02-3.28922E-02-2.65955E-02-1.06988E-04 1.04002E-04 4.49440E-04
 -1        14-2.30169E-02-2.33198E-02-1.83349E-02 4.18628E-04-7.46978E-05-3.98623E-04
 -1        15-3.20601E-03-3.85701E-03-1.42200E-03-6.03204E-04 1.42595E-04-2.06174E-04
 -1        16 3.02009E-03 3.46076E-03 6.70028E-03-3.22363E-04-2.67377E-04 1.34623E-04
 -1        17-2.35889E-02-2.29171E-02-1.84773E-02-4.03820E-05 3.43360E-05-7.92217E-05
 -1        18-4.34641E-03-4.20371E-03-1.18903E-03-9.56793E-05 1.08536E-04-3.49555E-04
 -1        19-3.30014E-02-3.24015E-02-2.49699E-02-3.49029E-04-2.02070E-04 1.06125E-03
 -1        20-2.32870E-02-2.30296E-02-1.81329E-02 6.82746E-04 2.91420E-04-4.07969E-04
 -1        21-3.20527E-03-4.38562E-03-1.38844E-03-2.79348E-04 2.10254E-04-3.90688E-05
 -1        22 2.78712E-03 3.60779E-03 5.82707E-03-5.27921E-04-6.34413E-05 4.75123E-04
 -1        23-2.35341E-02-2.29183E-02-1.84020E-02 3.14492E-04-1.16411E-04-1.68690E-04
 -1        24-3.62917E-03-4.31866E-03-1.20638E-03 1.38584E-04 6.35399E-05-1.96248E-05
 -1        25 2.90450E-03 3.17229E-03 6.20946E-03-5.64032E-04-6.28349E-05 5.59411E-04
 -1        26-3.23597E-02-3.23929E-02-2.55799E-02-3.79771E-04-1.23072E-04 1.04253E-03
 -1        27 2.75446E-03 4.07181E-03 6.08685E-03-1.00523E-04 3.25104E-06 6.09626E-04
 -1        28-3.32214E-02-3.28117E-02-2.61413E-02-2.31965E-04-1.53370E-04 1.01412E-03
 -1        29-2.34189E-02-2.32120E-02-1.82601E-02 6.82163E-05 4.52158E-05-1.21171E-04
 -1        30-1.21962E-02-1.27253E-02-9.53338E-03 5.91247E-04 3.76827E-05-5.40020E-05
 -1        31-4.28838E-03-4.06320E-03-1.34726E-03-2.51225E-04 1.05507E-04-1.19446E-04
 -1        32-2.34650E-02-2.28643E-02-1.83254E-02 5.49661E-04-1.07466E-04-3.23059E-04
 -1        33-3.44976E-03-4.13659E-03-1.14796E-03-2.43697E-04 1.65309E-04 7.24865E-05
 -1        34-1.21799E-02-1.25642E-02-9.34890E-03 1.13828E-04 2.31372E-05-6.88785E-04
 -1        35-2.30043E-02-2.31969E-02-1.83996E-02 6.16723E-04-1.10909E-04-3.11779E-04
 -1        36-3.42056E-03-4.00427E-03-1.23010E-03-3.63642E-04 8.98582E-05 1.50092E-04
 -1        37-1.14555E-02-1.25933E-02-9.43655E-03 7.42334E-04-4.31586E-05-7.34408E-05
 -1        38-2.32286E-02-2.30182E-02-1.84284E-02 3.35085E-05-1.03910E-04-1.98344E-04
 -1        39-4.24040E-03-4.25647E-03-1.01574E-03 1.48068E-04 9.27612E-05-6.00740E-05
 -1        40-1.24974E-02-1.28370E-02-9.33302E-03 3.20178E-05 1.48505E-05-2.11070E-04
 -1        41 2.41615E-03 3.44741E-03 6.10451E-03-4.17642E-04-1.32666E-04 3.84926E-04
 -1        42-3.23577E-02-3.25992E-02-2.58578E-02-4.17611E-04-2.88272E-04 1.02824E-03
 -1        43-1.23845E-02-1.25558E-02-9.39315E-03 2.90717E-04 2.59193E-05-5.92121E-05
 -1        44-2.33922E-02-2.28750E-02-1.84168E-02 4.13762E-04-1.25224E-04-2.73671E-04
 -1        45-3.92455E-03-4.04987E-03-1.06942E-03-1.91310E-04 1.13266E-04-3.07104E-05
 -3
    1PSTEP                        56          14           1          
  100CL  114 14.00000000          45                     0   14           1
 -4  ERROR       1    1
 -5  STR(%)      1    1    0    0
 -1         1 2.75994E+01
 -1         2 2.69438E+01
 -1         3 2.75994E+01
 -1         4 2.75994E+01
 -1         5 1.00166E+01
 -1         6 2.97209E+01
 -1         7 2.97209E+01
 -1         8 2.97209E+01
 -1         9 2.69438E+01
 -1        10 2.69438E+01
 -1        11 2.97209E+01
 -1        12 2.70131E+01
 -1        13 2.97209E+01
 -1        14 2.83323E+01
 -1        15 2.69438E+01
 -1        16 2.72716E+01
 -1        17 2.83323E+01
 -1        18 2.72716E+01
 -1        19 1.98688E+01
 -1        20 1.98688E+01
 -1        21 2.86602E+01
 -1        22 2.75994E+01
 -1        23 2.83670E+01
 -1        24 2.73063E+01
 -1        25 2.72716E+01
 -1        26 1.98688E+01
 -1        27 2.75994E+01
 -1        28 2.97209E+01
 -1        29 2.83323E+01
 -1        30 2.69438E+01
 -1        31 2.69438E+01
 -1        32 2.97209E+01
 -1        33 2.86602E+01
 -1        34 2.83670E+01
 -1        35 2.97209E+01
 -1        36 2.83323E+01
 -1        37 2.83323E+01
 -1        38 2.83670E+01
 -1        39 2.73063E+01
 -1        40 2.69785E+01
 -1        41 2.75994E+01
 -1        42 2.97209E+01
 -1        43 2.83323E+01
 -1        44 2.97209E+01
 -1        45 2.86602E+01
 -3
    1PSTEP                        57          15           1          
  100CL  115 15.00000000          45                     0   15           1
 -4  DISP        4    1
 -5  D1          1    2    1    0
 -5  D2          1    2    2    0
 -5  D3          1    2    3    0
 -5  ALL         1    2    0    0    1ALL
 -1         1-8.32613E+00 1.36844E+00-2.63078E+00
 -1         2-4.14696E+00 1.31843E+00 0.00000E+00
 -1         3-3.89970E+00 0.00000E+00-2.59275E+00
 -1         4 0.00000E+00 0.00000E+00 0.00000E+00
 -1         5 6.67844E+00-1.65131E+01 1.26308E+01
 -1         6 1.04301E+01-1.68020E+01 0.00000E+00
 -1         7 1.12472E+01 0.00000E+00 1.29583E+01
 -1         8 1.50346E+01 0.00000E+00 0.00000E+00
 -1         9-1.91367E+00-7.14402E+00 0.00000E+00
 -1        10 2.68268E+00 0.00000E+00 0.00000E+00
 -1        11-6.03229E+00-7.06937E+00 5.48757E+00
 -1        12-1.42025E+00 0.00000E+00 5.42136E+00
 -1        13 1.38214E+01-8.37333E+00 0.00000E+00
 -1        14 2.89013E+00-1.22661E+01 0.00000E+00
 -1        15-4.04207E+00-2.61032E+00 0.00000E+00
 -1        16-1.07396E+00 6.68206E-01 0.00000E+00
 -1        17 7.59685E+00 0.00000E+00 0.00000E+00
 -1        18 3.27565E-01 0.00000E+00 0.00000E+00
 -1        19 9.98694E+00-8.31185E+00 1.26890E+01
 -1        20-6.94433E-01-1.21297E+01 9.63928E+00
 -1        21-8.01383E+00-2.72955E+00 1.27490E+00
 -1        22-5.10098E+00 7.25564E-01-2.61176E+00
 -1        23 3.65142E+00 0.00000E+00 9.72734E+00
 -1        24-3.65551E+00 0.00000E+00 1.15166E+00
 -1        25-5.31416E+00 1.33140E+00-1.34525E+00
 -1        26 9.18563E+00-1.65717E+01 6.46368E+00
 -1        27-1.00321E+00 0.00000E+00-1.30561E+00
 -1        28 1.39439E+01 0.00000E+00 6.50225E+00
 -1        29 6.45376E+00-6.05522E+00 0.00000E+00
 -1        30 1.58852E+00-3.58029E+00 0.00000E+00
 -1        31-7.71095E-01-1.33519E+00 0.00000E+00
 -1        32 2.66334E+00-6.02614E+00 9.64123E+00
 -1        33-4.76849E+00-1.35846E+00 1.18584E+00
 -1        34-2.54214E+00-3.55028E+00 5.45170E+00
 -1        35 2.04478E+00-1.21704E+01 4.78700E+00
 -1        36-5.01443E+00-2.65316E+00 6.43489E-01
 -1        37-2.88526E+00-7.12463E+00 2.74837E+00
 -1        38 6.63040E+00 0.00000E+00 4.89663E+00
 -1        39-6.56980E-01 0.00000E+00 5.67775E-01
 -1        40 1.70636E+00 0.00000E+00 2.71047E+00
 -1        41-2.16925E+00 7.25907E-01-1.35270E+00
 -1        42 1.26168E+01-8.34264E+00 6.49216E+00
 -1        43 5.41332E-01-3.57395E+00 2.73393E+00
 -1        44 5.48242E+00-6.07649E+00 4.82668E+00
 -1        45-1.76364E+00-1.34601E+00 6.19092E-01
 -3
    1PSTEP                        58          15           1          
  100CL  115 15.00000000          45                     0   15           1
 -4  STRESS      6    1
 -5  SXX         1    4    1    1
 -5  SYY         1    4    2    2
 -5  SZZ         1    4    3    3
 -5  SXY         1    4    1    2
 -5  SYZ         1    4    2    3
 -5  SZX         1    4    3    1
 -1         1-4.87307E-01-1.33998E-01-3.56358E-01 1.80390E-01 1.57766E-01-3.52498E-01
 -1         2-6.31791E-02-1.42045E-01-1.60524E+00 3.67062E-02-8.17700E-03-3.36040E-02
 -1         3 8.73611E-02-4.60766E-01-1.19787E-01-7.23753E-02 1.15037E-02-3.94849E-02
 -1         4 1.46489E+00-7.22641E-01-1.39220E+00-4.60663E-02-1.19548E-02 6.00962E-02
 -1         5-1.93793E+00-6.46871E-01-1.09251E+00-7.43770E-01 9.54079E-02 1.19030E+00
 -1         6 2.39002E-01-1.17668E+00-3.28554E+00-1.02708E+00 5.17293E-02 6.15876E-01
 -1         7-5.24251E-01-3.09221E+00-1.39222E+00-4.66682E-01-1.54115E-01 1.46321E+00
 -1         8 2.76561E+00-9.12995E-01-2.05615E+00-3.48273E-02 1.11822E-02 2.31003E-01
 -1         9-9.78838E-01 3.55032E-01 1.73448E+00 6.33275E-01-8.48424E-02-1.75898E-01
 -1        10 3.12369E+00 1.30977E+00 2.95423E+00 1.28853E-01-8.69280E-02-1.79369E-01
 -1        11-2.13601E+00 8.91690E-01 1.41755E+00 3.30591E-01-1.16512E-01-4.27809E-01
 -1        12-1.49877E+00 1.05332E+00 2.81103E-01 7.88369E-02 5.48650E-02-4.66195E-01
 -1        13 3.80537E-02-1.68935E+00-4.43913E+00-3.54403E-01 3.48245E-01 4.21018E-01
 -1        14-4.10885E-01 2.96250E-01 2.18348E+00-7.50866E-01-2.36514E-01-3.63862E-01
 -1        15-4.33266E-01-3.79093E-01-3.16491E-01 4.10383E-01-4.95395E-02-2.12869E-01
 -1        16 6.69915E-01-3.71047E-01-1.41622E+00 8.21800E-02-3.36157E-02 1.95741E-01
 -1        17 2.79229E+00 1.32992E+00 1.71585E+00-6.78005E-02-7.42439E-02-5.65663E-01
 -1        18 1.30419E+00-3.96422E-01 2.07579E-01 1.33295E-01-3.40557E-03 1.52399E-02
 -1        19-8.34424E-01-2.40495E+00-1.37258E+00-8.31305E-01-6.60421E-02 1.41146E+00
 -1        20-3.41575E+00 1.55244E+00 2.24164E+00 8.87154E-02 5.67219E-02-5.08145E-02
 -1        21-1.89445E+00-3.52619E-01 3.80645E-02 6.72940E-01 1.95154E-02-9.35530E-01
 -1        22 1.87900E-03-3.96208E-01 5.85182E-03 8.76961E-02 1.29288E-01-2.75495E-02
 -1        23-1.92314E+00 1.05075E+00 1.01721E+00 2.78959E-01-1.74472E-01 4.70348E-01
 -1        24-1.50855E+00-4.06149E-01-2.95863E-02 7.58487E-02 1.04130E-02-5.73638E-01
 -1        25 2.19382E-01 2.40485E-01-1.17257E+00-4.76096E-02 1.41015E-01-2.36311E-01
 -1        26-2.74305E-01-9.80172E-01-3.65156E+00-1.03928E+00-4.50622E-02 1.37295E+00
 -1        27 1.26378E+00-4.10218E-01-8.30215E-01-1.58231E-01 1.50387E-02-1.07055E-01
 -1        28 1.14942E+00-2.55359E+00-1.97287E+00-2.05037E-01-1.19492E-01 1.27206E+00
 -1        29 2.18864E+00 1.03520E+00 2.22725E+00-4.17072E-01-1.10245E-01-3.07750E-01
 -1        30 1.42247E+00 9.51205E-01 2.08112E+00 5.65844E-01-5.19080E-02-1.07450E-01
 -1        31 9.66977E-01-4.13151E-02-1.11400E-01 1.44629E-01-5.29689E-02-3.61447E-02
 -1        32-1.93033E+00 3.92688E-01 1.65127E+00-2.65594E-01-2.18248E-01 3.95270E-01
 -1        33-1.57473E+00-6.33204E-01 7.07070E-02 4.67262E-01-1.64840E-02-6.30201E-01
 -1        34-1.95518E+00 6.62283E-01 3.33022E-01-2.01924E-02-1.65041E-04-4.33653E-01
 -1        35-8.94925E-01 7.76245E-01 4.45916E-01-4.34793E-01-1.36045E-01 5.58742E-01
 -1        36-7.93248E-01-2.36800E-01-1.02085E+00 4.30931E-01 3.72844E-02-7.14284E-01
 -1        37-1.77057E+00 2.12581E-01 5.96348E-01 5.71876E-01-3.00602E-02 1.06098E-01
 -1        38 1.62772E+00 1.14992E+00 5.71267E-01 1.34187E-01-1.27022E-01 2.15165E-01
 -1        39 9.53780E-02-4.67735E-01-8.69133E-01 9.84703E-02 5.06680E-02-5.55806E-01
 -1        40 9.40059E-01 1.10217E+00 1.36467E+00 2.59870E-02 9.26765E-02-1.44270E-01
 -1        41 6.44084E-01-2.91470E-01-9.33495E-01-6.98383E-02 8.87718E-02-9.87545E-02
 -1        42 2.94765E-01-3.22228E+00-4.45023E+00-9.74427E-01-4.34668E-02 1.42858E+00
 -1        43 1.07464E+00 7.81101E-01 1.61125E+00 1.60625E-01-7.30397E-02-5.31403E-03
 -1        44 6.11419E-01 7.33229E-01 5.43293E-01-2.81221E-01-1.97861E-01 4.06283E-01
 -1        45-2.11842E-01-6.32275E-01-7.01362E-01 3.90507E-01 1.02221E-02-6.64374E-01
 -3
    1PSTEP                        59          15           1          
  100CL  115 15.00000000          45                     0   15           1
 -4  TOSTRAIN    6    1
 -5  EXX         1    4    1    1
 -5  EYY         1    4    2    2
 -5  EZZ         1    4    3    3
 -5  EXY         1    4    1    2
 -5  EYZ         1    4    2    3
 -5  EZX         1    4    3    1
 -1         1 2.09350E-03 2.30662E-03 4.95484E-03-4.83341E-04-5.24991E-05 3.28574E-04
 -1         2 2.92583E-03 3.07234E-03 5.71832E-03-6.55145E-04-9.02940E-05 1.79177E-04
 -1         3 2.47158E-03 3.16938E-03 5.11166E-03-1.60220E-04 1.62567E-05 6.54394E-04
 -1         4 2.07710E-03 3.04591E-03 5.68036E-03-9.31261E-05-7.67908E-05 1.49879E-04
 -1         5-3.34942E-02-3.25838E-02-2.40753E-02-5.91475E-04 1.49206E-04 1.46382E-03
 -1         6-3.33508E-02-3.39639E-02-2.67774E-02-5.53586E-04-9.26819E-05 6.41197E-04
 -1         7-3.36998E-02-3.35584E-02-2.52588E-02-4.27414E-04-3.45035E-04 1.53555E-03
 -1         8-3.37836E-02-3.39277E-02-2.70427E-02-2.50117E-04-3.66743E-05 5.71917E-04
 -1         9-1.31505E-02-1.42217E-02-1.10117E-02 8.37861E-04-2.91195E-06-2.32276E-04
 -1        10-1.41350E-02-1.42949E-02-1.08778E-02 1.48001E-04 8.80997E-05-1.28280E-04
 -1        11-1.40635E-02-1.41900E-02-1.12011E-02 5.43553E-04 3.47008E-05-6.34941E-04
 -1        12-1.40961E-02-1.42634E-02-1.10685E-02 1.24478E-04 5.51561E-05-7.58916E-04
 -1        13-3.33749E-02-3.36038E-02-2.67701E-02-2.63677E-04 2.25319E-04 6.19270E-04
 -1        14-2.46381E-02-2.48103E-02-1.91662E-02 1.03407E-04-1.55532E-04-4.84743E-04
 -1        15-4.47543E-03-5.06733E-03-2.59222E-03-4.70571E-04 1.21539E-04-2.30723E-04
 -1        16 2.30965E-03 2.63690E-03 5.72753E-03-2.98298E-04-2.57154E-04 1.75333E-04
 -1        17-2.46543E-02-2.42864E-02-1.94263E-02-6.10172E-05 8.60994E-06-2.64428E-04
 -1        18-5.37604E-03-5.42286E-03-2.35355E-03-6.48120E-05 1.00747E-04-3.14663E-04
 -1        19-3.32975E-02-3.30260E-02-2.41941E-02-6.81982E-04-2.17451E-04 1.59690E-03
 -1        20-2.53704E-02-2.41928E-02-1.88158E-02 6.61092E-04 2.97434E-04-3.87858E-04
 -1        21-4.59687E-03-5.54661E-03-2.53067E-03-1.24784E-04 1.98054E-04-2.26110E-04
 -1        22 2.01257E-03 2.73690E-03 4.99932E-03-4.92339E-04-3.73372E-05 4.53919E-04
 -1        23-2.52840E-02-2.41667E-02-1.92303E-02 3.92089E-04-1.77739E-04 4.19720E-05
 -1        24-4.96877E-03-5.49619E-03-2.37244E-03 1.42314E-04 6.28408E-05-1.39820E-04
 -1        25 2.14387E-03 2.38603E-03 5.26154E-03-5.46086E-04-3.51015E-05 5.01347E-04
 -1        26-3.25680E-02-3.26950E-02-2.52614E-02-8.01098E-04-1.34694E-04 1.56287E-03
 -1        27 2.12056E-03 3.19497E-03 5.18552E-03-1.30813E-04 5.31014E-06 5.72076E-04
 -1        28-3.34189E-02-3.37656E-02-2.59165E-02-3.20517E-04-1.99243E-04 1.47675E-03
 -1        29-2.46289E-02-2.46040E-02-1.91084E-02-1.00832E-04 6.85435E-06-2.06072E-04
 -1        30-1.37365E-02-1.42879E-02-1.09539E-02 7.18850E-04 2.31849E-05-8.10706E-05
 -1        31-5.33961E-03-5.25511E-03-2.53448E-03-2.11209E-04 8.68753E-05-1.10739E-04
 -1        32-2.52171E-02-2.42730E-02-1.90886E-02 4.11636E-04-1.78940E-04-1.37528E-04
 -1        33-4.80541E-03-5.34519E-03-2.30393E-03-1.24936E-04 1.50910E-04-6.72924E-05
 -1        34-1.41792E-02-1.41386E-02-1.10490E-02 8.65002E-05 2.35995E-05-7.58250E-04
 -1        35-2.46060E-02-2.45087E-02-1.94468E-02 4.05115E-04-1.49244E-04-9.28430E-05
 -1        36-4.70038E-03-5.18140E-03-2.49251E-03-2.46091E-04 9.27544E-05-1.89527E-05
 -1        37-1.34040E-02-1.41695E-02-1.09750E-02 8.50558E-04-4.57690E-05-2.50445E-05
 -1        38-2.44255E-02-2.43681E-02-1.95011E-02 7.22951E-05-1.45410E-04-1.03039E-04
 -1        39-5.39337E-03-5.44635E-03-2.28524E-03 1.54929E-04 9.71085E-05-1.75711E-04
 -1        40-1.40775E-02-1.43580E-02-1.08426E-02 3.82024E-05 4.13969E-05-2.25843E-04
 -1        41 1.71953E-03 2.59811E-03 5.18226E-03-4.13549E-04-1.09032E-04 3.58888E-04
 -1        42-3.23532E-02-3.33091E-02-2.56281E-02-8.14956E-04-2.91452E-04 1.58134E-03
 -1        43-1.39930E-02-1.41894E-02-1.09310E-02 3.12895E-04-3.39533E-06-3.73156E-05
 -1        44-2.47101E-02-2.42541E-02-1.94550E-02 2.90458E-04-1.83558E-04-1.18601E-04
 -1        45-5.12677E-03-5.26919E-03-2.31083E-03-9.07294E-05 1.08581E-04-1.75826E-04
 -3
    1PSTEP                        60          15           1          
  100CL  115 15.00000000          45                     0   15           1
 -4  ERROR       1    1
 -5  STR(%)      1    1    0    0
 -1         1 2.35115E+01
 -1         2 2.73094E+01
 -1         3 2.35115E+01
 -1         4 2.73094E+01
 -1         5 9.88725E+00
 -1         6 2.86333E+01
 -1         7 2.86333E+01
 -1         8 2.86333E+01
 -1         9 2.65784E+01
 -1        10 2.73094E+01
 -1        11 2.86333E+01
 -1        12 2.57809E+01
 -1        13 2.86333E+01
 -1        14 2.76058E+01
 -1        15 2.69439E+01
 -1        16 2.73094E+01
 -1        17 2.79714E+01
 -1        18 2.73094E+01
 -1        19 1.92603E+01
 -1        20 1.92603E+01
 -1        21 2.60724E+01
 -1        22 2.35115E+01
 -1        23 2.72071E+01
 -1        24 2.46462E+01
 -1        25 2.54105E+01
 -1        26 1.92603E+01
 -1        27 2.54105E+01
 -1        28 2.86333E+01
 -1        29 2.79714E+01
 -1        30 2.69439E+01
 -1        31 2.73094E+01
 -1        32 2.86333E+01
 -1        33 2.60724E+01
 -1        34 2.72071E+01
 -1        35 2.86333E+01
 -1        36 2.79714E+01
 -1        37 2.76058E+01
 -1        38 2.72071E+01
 -1        39 2.65452E+01
 -1        40 2.65452E+01
 -1        41 2.54105E+01
 -1        42 2.86333E+01
 -1        43 2.79714E+01
 -1        44 2.86333E+01
 -1        45 2.79714E+01
 -3
    1PSTEP                        61          16           1          
  100CL  116 16.00000000          45                     0   16           1
 -4  DISP        4    1
 -5  D1          1    2    1    0
 -5  D2          1    2    2    0
 -5  D3          1    2    3    0
 -5  ALL         1    2    0    0    1ALL
 -1         1-8.43657E+00 9.26489E-01-2.14827E+00
 -1         2-4.27897E+00 9.04183E-01 0.00000E+00
 -1         3-3.96494E+00 0.00000E+00-2.13757E+00
 -1         4 0.00000E+00 0.00000E+00 0.00000E+00
 -1         5 8.25283E+00-1.66151E+01 1.21990E+01
 -1         6 1.16505E+01-1.69513E+01 0.00000E+00
 -1         7 1.26434E+01 0.00000E+00 1.25772E+01
 -1         8 1.59248E+01 0.00000E+00 0.00000E+00
 -1         9-1.41669E+00-7.88908E+00 0.00000E+00
 -1        10 3.16917E+00 0.00000E+00 0.00000E+00
 -1        11-5.44389E+00-7.82194E+00 6.21252E+00
 -1        12-8.18491E-01 0.00000E+00 6.13036E+00
 -1        13 1.47969E+01-8.45789E+00 0.00000E+00
 -1        14 3.82113E+00-1.28707E+01 0.00000E+00
 -1        15-3.91794E+00-3.20323E+00 0.00000E+00
 -1        16-1.09865E+00 4.54179E-01 0.00000E+00
 -1        17 8.36687E+00 0.00000E+00 0.00000E+00
 -1        18 5.35932E-01 0.00000E+00 0.00000E+00
 -1        19 1.13228E+01-8.41316E+00 1.22651E+01
 -1        20 6.15957E-01-1.26734E+01 9.95454E+00
 -1        21-7.84798E+00-3.30623E+00 1.85561E+00
 -1        22-5.17060E+00 4.97932E-01-2.14430E+00
 -1        23 4.76682E+00 0.00000E+00 1.00852E+01
 -1        24-3.45526E+00 0.00000E+00 1.74122E+00
 -1        25-5.42417E+00 9.02884E-01-1.09254E+00
 -1        26 1.03384E+01-1.66811E+01 6.31637E+00
 -1        27-9.97070E-01 0.00000E+00-1.06674E+00
 -1        28 1.49195E+01 0.00000E+00 6.33893E+00
 -1        29 7.26286E+00-6.34101E+00 0.00000E+00
 -1        30 2.08656E+00-3.94857E+00 0.00000E+00
 -1        31-5.66516E-01-1.63568E+00 0.00000E+00
 -1        32 3.81418E+00-6.28889E+00 9.96429E+00
 -1        33-4.57403E+00-1.65233E+00 1.77415E+00
 -1        34-1.93982E+00-3.91888E+00 6.16920E+00
 -1        35 3.03612E+00-1.27377E+01 4.94091E+00
 -1        36-4.86404E+00-3.24160E+00 9.44510E-01
 -1        37-2.35583E+00-7.86519E+00 3.09137E+00
 -1        38 7.49028E+00 0.00000E+00 5.09381E+00
 -1        39-4.37083E-01 0.00000E+00 8.65276E-01
 -1        40 2.23663E+00 0.00000E+00 3.04397E+00
 -1        41-2.19423E+00 4.99899E-01-1.10235E+00
 -1        42 1.35844E+01-8.44266E+00 6.34464E+00
 -1        43 1.06772E+00-3.94199E+00 3.08198E+00
 -1        44 6.35696E+00-6.36791E+00 5.00020E+00
 -1        45-1.54780E+00-1.64356E+00 9.18075E-01
 -3
    1PSTEP                        62          16           1          
  100CL  116 16.00000000          45                     0   16           1
 -4  STRESS      6    1
 -5  SXX         1    4    1    1
 -5  SYY         1    4    2    2
 -5  SZZ         1    4    3    3
 -5  SXY         1    4    1    2
 -5  SYZ         1    4    2    3
 -5  SZX         1    4    3    1
 -1         1-6.79681E-01-2.90752E-01-5.29609E-01 3.08323E-01 2.03798E-01-4.93478E-01
 -1         2-1.67304E-01-2.93241E-01-2.09335E+00 1.45373E-01 2.88897E-03-6.93062E-02
 -1         3 1.69038E-02-8.84528E-01-2.01677E-01-6.26683E-02 1.03438E-02-1.47818E-01
 -1         4 1.99504E+00-1.04512E+00-1.84286E+00-4.10111E-02-4.25717E-03 5.54809E-02
 -1         5-2.29206E+00-7.80486E-01-1.28190E+00-8.92538E-01 1.10259E-01 1.39496E+00
 -1         6 2.33519E-01-1.46745E+00-4.00974E+00-1.24945E+00 7.19167E-02 7.32511E-01
 -1         7-5.65580E-01-3.82404E+00-1.64744E+00-5.55592E-01-1.69182E-01 1.73121E+00
 -1         8 3.37471E+00-1.25103E+00-2.56638E+00-2.20336E-02 1.59068E-02 2.46196E-01
 -1         9-1.43242E+00 4.99875E-01 2.19320E+00 7.06618E-01-1.05486E-01-1.94876E-01
 -1        10 4.01371E+00 1.76329E+00 3.73787E+00 1.45481E-01-1.22207E-01-2.11069E-01
 -1        11-2.70746E+00 1.18140E+00 1.76008E+00 3.61059E-01-1.53850E-01-4.72062E-01
 -1        12-1.82992E+00 1.44846E+00 3.77802E-01 8.48154E-02 6.47479E-02-5.05892E-01
 -1        13 6.24299E-02-2.09259E+00-5.34390E+00-4.25470E-01 4.20839E-01 4.86346E-01
 -1        14-6.47444E-01 2.84606E-01 2.52096E+00-9.66913E-01-2.85377E-01-4.14249E-01
 -1        15-6.80413E-01-4.63735E-01-2.50621E-01 5.83856E-01-7.94180E-02-2.34914E-01
 -1        16 8.07127E-01-6.02579E-01-2.00031E+00 1.53386E-01-4.41216E-03 2.17726E-01
 -1        17 3.45022E+00 1.54432E+00 2.01571E+00-7.97814E-02-9.45614E-02-6.91961E-01
 -1        18 1.76996E+00-3.56016E-01 3.64812E-01 1.75461E-01-1.72807E-02 6.49261E-02
 -1        19-9.12405E-01-2.92786E+00-1.60776E+00-9.95970E-01-6.67948E-02 1.66475E+00
 -1        20-4.24417E+00 1.84453E+00 2.62789E+00 5.01580E-02 4.78378E-02-2.47399E-02
 -1        21-2.46194E+00-2.60157E-01 2.04962E-01 8.64194E-01-2.81413E-03-1.14244E+00
 -1        22-6.77578E-02-7.91192E-01-1.20146E-01 1.92399E-01 1.65960E-01-1.08394E-01
 -1        23-2.35284E+00 1.22427E+00 1.18977E+00 3.20108E-01-2.05712E-01 5.99059E-01
 -1        24-1.92339E+00-4.02928E-01 3.67073E-02 7.59154E-02 4.16134E-03-7.06289E-01
 -1        25 1.55842E-01 1.17845E-01-1.68002E+00 3.47490E-02 1.80132E-01-3.75702E-01
 -1        26-3.08615E-01-1.17397E+00-4.33685E+00-1.25057E+00-4.63677E-02 1.61791E+00
 -1        27 1.62137E+00-8.11447E-01-1.09831E+00-1.75019E-01 1.67026E-02-2.19087E-01
 -1        28 1.43979E+00-3.17745E+00-2.38470E+00-2.33080E-01-1.36741E-01 1.49172E+00
 -1        29 2.68040E+00 1.22232E+00 2.61032E+00-5.17358E-01-1.39786E-01-3.69802E-01
 -1        30 1.76169E+00 1.29666E+00 2.64589E+00 6.33549E-01-6.70144E-02-1.25299E-01
 -1        31 1.32046E+00 3.99874E-02 1.36577E-02 2.13908E-01-7.63657E-02-2.95132E-02
 -1        32-2.37365E+00 3.93435E-01 1.93645E+00-3.75774E-01-2.60842E-01 5.18377E-01
 -1        33-2.04580E+00-7.27379E-01 1.43091E-01 6.03978E-01-4.13055E-02-7.86598E-01
 -1        34-2.39632E+00 9.22702E-01 4.34233E-01-3.31349E-02-1.56955E-03-4.65029E-01
 -1        35-1.18102E+00 8.99965E-01 4.36081E-01-5.89479E-01-1.57965E-01 7.16434E-01
 -1        36-1.08559E+00-2.58479E-01-1.17585E+00 5.78996E-01 3.47726E-02-8.95943E-01
 -1        37-2.36928E+00 3.15270E-01 7.57064E-01 6.28479E-01-3.15699E-02 1.37204E-01
 -1        38 1.94994E+00 1.32516E+00 5.90205E-01 1.62858E-01-1.48642E-01 2.85395E-01
 -1        39 2.59853E-01-4.43188E-01-9.99298E-01 1.02597E-01 4.94802E-02-6.75801E-01
 -1        40 1.22842E+00 1.50791E+00 1.73573E+00 2.84404E-02 1.13256E-01-1.56930E-01
 -1        41 8.53737E-01-5.97269E-01-1.33700E+00-1.72013E-02 1.27128E-01-1.81221E-01
 -1        42 4.07896E-01-3.89387E+00-5.26923E+00-1.16783E+00-3.36697E-02 1.68771E+00
 -1        43 1.38321E+00 1.05951E+00 2.04485E+00 1.69107E-01-9.50330E-02-1.33089E-03
 -1        44 7.38051E-01 7.99762E-01 5.67470E-01-3.84792E-01-2.32730E-01 5.26184E-01
 -1        45-2.11131E-01-7.18186E-01-8.07811E-01 5.02431E-01-1.21254E-03-8.10615E-01
 -3
    1PSTEP                        63          16           1          
  100CL  116 16.00000000          45                     0   16           1
 -4  TOSTRAIN    6    1
 -5  EXX         1    4    1    1
 -5  EYY         1    4    2    2
 -5  EZZ         1    4    3    3
 -5  EXY         1    4    1    2
 -5  EYZ         1    4    2    3
 -5  EZX         1    4    3    1
 -1         1 1.27924E-03 1.49552E-03 4.10489E-03-4.17702E-04-1.51181E-05 2.46169E-04
 -1         2 2.14499E-03 2.27377E-03 4.72728E-03-6.10452E-04-8.47662E-05 1.76068E-04
 -1         3 1.71762E-03 2.27792E-03 4.29147E-03-1.74174E-04 1.66725E-05 6.11864E-04
 -1         4 1.51163E-03 2.15750E-03 4.69180E-03-1.06624E-04-7.38766E-05 1.76453E-04
 -1         5-3.36340E-02-3.23849E-02-2.26626E-02-9.29771E-04 1.85461E-04 1.95921E-03
 -1         6-3.34018E-02-3.43063E-02-2.64849E-02-1.02156E-03-6.55630E-05 9.36710E-04
 -1         7-3.36297E-02-3.41268E-02-2.41561E-02-6.50640E-04-3.98200E-04 2.15621E-03
 -1         8-3.34993E-02-3.45297E-02-2.67950E-02-2.64468E-04-3.59517E-05 6.64647E-04
 -1         9-1.50252E-02-1.57458E-02-1.23058E-02 9.79282E-04-2.84444E-05-2.70637E-04
 -1        10-1.53944E-02-1.58539E-02-1.21841E-02 1.83919E-04 4.23108E-05-1.84309E-04
 -1        11-1.62839E-02-1.58136E-02-1.28436E-02 5.93704E-04-1.46076E-05-7.07586E-04
 -1        12-1.60300E-02-1.57070E-02-1.27299E-02 1.40069E-04 7.32152E-05-8.47600E-04
 -1        13-3.32218E-02-3.39023E-02-2.64595E-02-4.41445E-04 3.62807E-04 8.09082E-04
 -1        14-2.60820E-02-2.61026E-02-1.97039E-02-2.59981E-04-2.46633E-04-5.78901E-04
 -1        15-5.73591E-03-6.25397E-03-3.71841E-03-3.12591E-04 9.60896E-05-2.56704E-04
 -1        16 1.61589E-03 1.80842E-03 4.72887E-03-2.67360E-04-2.42669E-04 2.20393E-04
 -1        17-2.54601E-02-2.54442E-02-2.00969E-02-8.42536E-05-2.10106E-05-4.74595E-04
 -1        18-6.35096E-03-6.61625E-03-3.47568E-03-2.85414E-05 9.07223E-05-2.71237E-04
 -1        19-3.31222E-02-3.32298E-02-2.28142E-02-1.05849E-03-2.33127E-04 2.19861E-03
 -1        20-2.73385E-02-2.51152E-02-1.91868E-02 6.29706E-04 3.01689E-04-3.60767E-04
 -1        21-5.99734E-03-6.67145E-03-3.62483E-03 5.51432E-05 1.81995E-04-4.39883E-04
 -1        22 1.24727E-03 1.85301E-03 4.17595E-03-4.46048E-04-6.77348E-06 4.24679E-04
 -1        23-2.68698E-02-2.51870E-02-1.97639E-02 4.77443E-04-2.46248E-04 2.83841E-04
 -1        24-6.30545E-03-6.64091E-03-3.49558E-03 1.45192E-04 6.13824E-05-2.77338E-04
 -1        25 1.39330E-03 1.60362E-03 4.29655E-03-5.19536E-04-2.69814E-06 4.29063E-04
 -1        26-3.22982E-02-3.25311E-02-2.43977E-02-1.27837E-03-1.46898E-04 2.14686E-03
 -1        27 1.51689E-03 2.29939E-03 4.27516E-03-1.64442E-04 7.66970E-06 5.22749E-04
 -1        28-3.31279E-02-3.43412E-02-2.51541E-02-4.19393E-04-2.49871E-04 1.99526E-03
 -1        29-2.56007E-02-2.57848E-02-1.96664E-02-2.94058E-04-3.69922E-05-3.01414E-04
 -1        30-1.52067E-02-1.57780E-02-1.22683E-02 8.58784E-04 6.19564E-06-1.11251E-04
 -1        31-6.34011E-03-6.41860E-03-3.68088E-03-1.62613E-04 6.45450E-05-9.94947E-05
 -1        32-2.68056E-02-2.54770E-02-1.95493E-02 2.49315E-04-2.59142E-04 7.71213E-05
 -1        33-6.16225E-03-6.52721E-03-3.41612E-03 1.35181E-05 1.32792E-04-2.28072E-04
 -1        34-1.61730E-02-1.56437E-02-1.26844E-02 5.48443E-05 2.39275E-05-8.31656E-04
 -1        35-2.60272E-02-2.55987E-02-2.02307E-02 1.58177E-04-1.91657E-04 1.59467E-04
 -1        36-5.97063E-03-6.32854E-03-3.72589E-03-1.07657E-04 9.52020E-05-2.13973E-04
 -1        37-1.53468E-02-1.56765E-02-1.24249E-02 9.67399E-04-4.83685E-05 3.01861E-05
 -1        38-2.53837E-02-2.55031E-02-2.03133E-02 1.16087E-04-1.91693E-04 7.56521E-06
 -1        39-6.51011E-03-6.60580E-03-3.52887E-03 1.61297E-04 1.01124E-04-3.07561E-04
 -1        40-1.55903E-02-1.57995E-02-1.22606E-02 4.49208E-05 7.15510E-05-2.41146E-04
 -1        41 1.04743E-03 1.74060E-03 4.24770E-03-4.04483E-04-8.06285E-05 3.24926E-04
 -1        42-3.18400E-02-3.36087E-02-2.48631E-02-1.26415E-03-2.92265E-04 2.20280E-03
 -1        43-1.55392E-02-1.57623E-02-1.23806E-02 3.35887E-04-3.71309E-05-1.23440E-05
 -1        44-2.58046E-02-2.54239E-02-2.02283E-02 1.46173E-04-2.48840E-04 6.06469E-05
 -1        45-6.30300E-03-6.46429E-03-3.52185E-03 2.63858E-05 1.02091E-04-3.41663E-04
 -3
    1PSTEP                        64          16           1          
  100CL  116 16.00000000          45                     0   16           1
 -4  ERROR       1    1
 -5  STR(%)      1    1    0    0
 -1         1 2.07318E+01
 -1         2 2.72262E+01
 -1         3 2.07318E+01
 -1         4 2.72262E+01
 -1         5 9.78785E+00
 -1         6 2.78223E+01
 -1         7 2.78223E+01
 -1         8 2.78223E+01
 -1         9 2.61084E+01
 -1        10 2.72262E+01
 -1        11 2.78223E+01
 -1        12 2.48862E+01
 -1        13 2.78223E+01
 -1        14 2.69653E+01
 -1        15 2.66673E+01
 -1        16 2.72262E+01
 -1        17 2.75242E+01
 -1        18 2.72262E+01
 -1        19 1.88051E+01
 -1        20 1.88051E+01
 -1        21 2.42770E+01
 -1        22 2.07318E+01
 -1        23 2.63542E+01
 -1        24 2.28090E+01
 -1        25 2.39790E+01
 -1        26 1.88051E+01
 -1        27 2.39790E+01
 -1        28 2.78223E+01
 -1        29 2.75242E+01
 -1        30 2.66673E+01
 -1        31 2.72262E+01
 -1        32 2.78223E+01
 -1        33 2.42770E+01
 -1        34 2.63542E+01
 -1        35 2.78223E+01
 -1        36 2.75242E+01
 -1        37 2.69653E+01
 -1        38 2.63542E+01
 -1        39 2.60562E+01
 -1        40 2.60562E+01
 -1        41 2.39790E+01
 -1        42 2.78223E+01
 -1        43 2.75242E+01
 -1        44 2.78223E+01
 -1        45 2.75242E+01
 -3
    1PSTEP                        65          17           1          
  100CL  117 17.00000000          45                     0   17           1
 -4  DISP        4    1
 -5  D1          1    2    1    0
 -5  D2          1    2    2    0
 -5  D3          1    2    3    0
 -5  ALL         1    2    0    0    1ALL
 -1         1-8.47685E+00 4.77991E-01-1.65716E+00
 -1         2-4.38767E+00 4.87579E-01 0.00000E+00
 -1         3-3.99745E+00 0.00000E+00-1.67781E+00
 -1         4 0.00000E+00 0.00000E+00 0.00000E+00
 -1         5 9.84357E+00-1.65055E+01 1.14925E+01
 -1         6 1.28003E+01-1.68929E+01 0.00000E+00
 -1         7 1.39882E+01 0.00000E+00 1.19253E+01
 -1         8 1.66566E+01 0.00000E+00 0.00000E+00
 -1         9-9.00915E-01-8.59770E+00 0.00000E+00
 -1        10 3.62827E+00 0.00000E+00 0.00000E+00
 -1        11-4.78092E+00-8.53967E+00 6.89287E+00
 -1        12-1.85448E-01 0.00000E+00 6.79325E+00
 -1        13 1.56369E+01-8.44016E+00 0.00000E+00
 -1        14 4.74877E+00-1.33713E+01 0.00000E+00
 -1        15-3.77056E+00-3.78352E+00 0.00000E+00
 -1        16-1.11608E+00 2.37949E-01 0.00000E+00
 -1        17 9.06702E+00 0.00000E+00 0.00000E+00
 -1        18 7.35842E-01 0.00000E+00 0.00000E+00
 -1        19 1.26115E+01-8.41492E+00 1.15673E+01
 -1        20 2.01154E+00-1.31065E+01 1.01279E+01
 -1        21-7.61110E+00-3.86714E+00 2.41669E+00
 -1        22-5.19633E+00 2.65742E-01-1.67041E+00
 -1        23 5.89952E+00 0.00000E+00 1.03057E+01
 -1        24-3.22222E+00 0.00000E+00 2.31340E+00
 -1        25-5.49586E+00 4.69961E-01-8.33705E-01
 -1        26 1.14242E+01-1.65795E+01 6.03963E+00
 -1        27-9.79439E-01 0.00000E+00-8.23968E-01
 -1        28 1.57592E+01 0.00000E+00 6.04372E+00
 -1        29 8.01825E+00-6.57327E+00 0.00000E+00
 -1        30 2.56951E+00-4.29799E+00 0.00000E+00
 -1        31-3.60094E-01-1.93014E+00 0.00000E+00
 -1        32 4.99676E+00-6.49548E+00 1.01464E+01
 -1        33-4.33665E+00-1.93910E+00 2.34460E+00
 -1        34-1.29514E+00-4.26892E+00 6.84145E+00
 -1        35 4.04129E+00-1.31972E+01 5.02359E+00
 -1        36-4.67650E+00-3.81648E+00 1.23709E+00
 -1        37-1.79292E+00-8.56885E+00 3.40946E+00
 -1        38 8.30231E+00 0.00000E+00 5.22453E+00
 -1        39-2.13615E-01 0.00000E+00 1.15456E+00
 -1        40 2.75574E+00 0.00000E+00 3.35166E+00
 -1        41-2.20049E+00 2.69553E-01-8.46104E-01
 -1        42 1.44276E+01-8.44272E+00 6.06744E+00
 -1        43 1.59379E+00-4.29117E+00 3.40593E+00
 -1        44 7.19670E+00-6.60645E+00 5.10475E+00
 -1        45-1.31806E+00-1.93462E+00 1.20857E+00
 -3
    1PSTEP                        66          17           1          
  100CL  117 17.00000000          45                     0   17           1
 -4  STRESS      6    1
 -5  SXX         1    4    1    1
 -5  SYY         1    4    2    2
 -5  SZZ         1    4    3    3
 -5  SXY         1    4    1    2
 -5  SYZ         1    4    2    3
 -5  SZX         1    4    3    1
 -1         1-8.81397E-01-4.55941E-01-7.11830E-01 4.42833E-01 2.51886E-01-6.41483E-01
 -1         2-2.77091E-01-4.53444E-01-2.60639E+00 2.60166E-01 1.48171E-02-1.06729E-01
 -1         3-5.80760E-02-1.33154E+00-2.87980E-01-5.24022E-02 9.24724E-03-2.62083E-01
 -1         4 2.55130E+00-1.38477E+00-2.31677E+00-3.57687E-02 3.95183E-03 5.03172E-02
 -1         5-2.65977E+00-9.19459E-01-1.47879E+00-1.04701E+00 1.25447E-01 1.60747E+00
 -1         6 2.27242E-01-1.77212E+00-4.76724E+00-1.48090E+00 9.35738E-02 8.53244E-01
 -1         7-6.07889E-01-4.58758E+00-1.91275E+00-6.47183E-01-1.84232E-01 2.00973E+00
 -1         8 4.00895E+00-1.60835E+00-3.10319E+00-8.08825E-03 2.09889E-02 2.61578E-01
 -1         9-1.90995E+00 6.53133E-01 2.67665E+00 7.82103E-01-1.27229E-01-2.14327E-01
 -1        10 4.94701E+00 2.24116E+00 4.56128E+00 1.62567E-01-1.59413E-01-2.44153E-01
 -1        11-3.30534E+00 1.48457E+00 2.11794E+00 3.91906E-01-1.93052E-01-5.17266E-01
 -1        12-2.17638E+00 1.86486E+00 4.80260E-01 9.09589E-02 7.50114E-02-5.46232E-01
 -1        13 8.72710E-02-2.51408E+00-6.28875E+00-4.98911E-01 4.96795E-01 5.53832E-01
 -1        14-8.97237E-01 2.70234E-01 2.86997E+00-1.19376E+00-3.35940E-01-4.66379E-01
 -1        15-9.41099E-01-5.52614E-01-1.80113E-01 7.66556E-01-1.10816E-01-2.57493E-01
 -1        16 9.50295E-01-8.46576E-01-2.61488E+00 2.28155E-01 2.66869E-02 2.40334E-01
 -1        17 4.13715E+00 1.76579E+00 2.32674E+00-9.23932E-02-1.15867E-01-8.23855E-01
 -1        18 2.25873E+00-3.12308E-01 5.30420E-01 2.19625E-01-3.19981E-02 1.17447E-01
 -1        19-9.91862E-01-3.47142E+00-1.85189E+00-1.16663E+00-6.73494E-02 1.92784E+00
 -1        20-5.10945E+00 2.14717E+00 3.02836E+00 8.52282E-03 3.82998E-02 3.59207E-03
 -1        21-3.05629E+00-1.61857E-01 3.80984E-01 1.06454E+00-2.65538E-02-1.35877E+00
 -1        22-1.41499E-01-1.20702E+00-2.53183E-01 3.02520E-01 2.04410E-01-1.93717E-01
 -1        23-2.80153E+00 1.40349E+00 1.36919E+00 3.62811E-01-2.37887E-01 7.34143E-01
 -1        24-2.35830E+00-3.98476E-01 1.06891E-01 7.57649E-02-2.41453E-03-8.45086E-01
 -1        25 8.82382E-02-1.23911E-02-2.21300E+00 1.21891E-01 2.21024E-01-5.21983E-01
 -1        26-3.42890E-01-1.37522E+00-5.04885E+00-1.46995E+00-4.76472E-02 1.87190E+00
 -1        27 1.99597E+00-1.23479E+00-1.37974E+00-1.92446E-01 1.85216E-02-3.37159E-01
 -1        28 1.74264E+00-3.82971E+00-2.81451E+00-2.61472E-01-1.54281E-01 1.71988E+00
 -1        29 3.19445E+00 1.41646E+00 3.00781E+00-6.22249E-01-1.70421E-01-4.34604E-01
 -1        30 2.11699E+00 1.66088E+00 3.24042E+00 7.03317E-01-8.30227E-02-1.43854E-01
 -1        31 1.69225E+00 1.26058E-01 1.46232E-01 2.86792E-01-1.00981E-01-2.23358E-02
 -1        32-2.83656E+00 3.92315E-01 2.23209E+00-4.91708E-01-3.05036E-01 6.47734E-01
 -1        33-2.53982E+00-8.25548E-01 2.19355E-01 7.47226E-01-6.74813E-02-9.50351E-01
 -1        34-2.85775E+00 1.19741E+00 5.41039E-01-4.69007E-02-3.09604E-03-4.96742E-01
 -1        35-1.48025E+00 1.02714E+00 4.23214E-01-7.52072E-01-1.80555E-01 8.81929E-01
 -1        36-1.39237E+00-2.81117E-01-1.33756E+00 7.34530E-01 3.20926E-02-1.08616E+00
 -1        37-2.99780E+00 4.24077E-01 9.27321E-01 6.86518E-01-3.32089E-02 1.70092E-01
 -1        38 2.28490E+00 1.50564E+00 6.06659E-01 1.92790E-01-1.71093E-01 3.59554E-01
 -1        39 4.33129E-01-4.16264E-01-1.13538E+00 1.06670E-01 4.80827E-02-8.01313E-01
 -1        40 1.53076E+00 1.93606E+00 2.12631E+00 3.09551E-02 1.34823E-01-1.69791E-01
 -1        41 1.07368E+00-9.19304E-01-1.76090E+00 3.84174E-02 1.67375E-01-2.68194E-01
 -1        42 5.26977E-01-4.59140E+00-6.11964E+00-1.36813E+00-2.30161E-02 1.95630E+00
 -1        43 1.70712E+00 1.35296E+00 2.50089E+00 1.77416E-01-1.18196E-01 3.01744E-03
 -1        44 8.69700E-01 8.66274E-01 5.89617E-01-4.93918E-01-2.69054E-01 6.52388E-01
 -1        45-2.09897E-01-8.07649E-01-9.18973E-01 6.19710E-01-1.33249E-02-9.63713E-01
 -3
    1PSTEP                        67          17           1          
  100CL  117 17.00000000          45                     0   17           1
 -4  TOSTRAIN    6    1
 -5  EXX         1    4    1    1
 -5  EYY         1    4    2    2
 -5  EZZ         1    4    3    3
 -5  EXY         1    4    1    2
 -5  EYZ         1    4    2    3
 -5  EZX         1    4    3    1
 -1         1 4.66819E-04 6.85094E-04 3.25606E-03-3.38621E-04 2.77316E-05 1.49431E-04
 -1         2 1.36356E-03 1.47080E-03 3.71120E-03-5.53593E-04-7.75557E-05 1.70841E-04
 -1         3 9.70321E-04 1.36829E-03 3.47517E-03-1.88520E-04 1.70650E-05 5.57660E-04
 -1         4 9.82407E-04 1.25249E-03 3.67883E-03-1.21105E-04-6.98635E-05 2.05000E-04
 -1         5-3.33402E-02-3.17132E-02-2.06379E-02-1.30822E-03 2.24980E-04 2.50874E-03
 -1         6-3.30057E-02-3.42359E-02-2.57065E-02-1.54660E-03-3.36190E-05 1.26614E-03
 -1         7-3.30949E-02-3.43160E-02-2.24723E-02-8.99589E-04-4.55088E-04 2.84670E-03
 -1         8-3.27206E-02-3.47536E-02-2.60649E-02-2.78871E-04-3.47897E-05 7.65610E-04
 -1         9-1.68875E-02-1.72021E-02-1.34898E-02 1.13228E-03-5.73703E-05-3.11972E-04
 -1        10-1.65528E-02-1.73488E-02-1.33833E-02 2.23338E-04-1.03195E-05-2.46446E-04
 -1        11-1.85292E-02-1.73829E-02-1.44209E-02 6.46573E-04-7.06860E-05-7.85304E-04
 -1        12-1.79513E-02-1.70718E-02-1.43294E-02 1.56689E-04 9.31804E-05-9.42013E-04
 -1        13-3.25947E-02-3.37855E-02-2.56606E-02-6.40569E-04 5.16684E-04 1.01932E-03
 -1        14-2.73474E-02-2.71954E-02-1.99463E-02-6.72008E-04-3.47898E-04-6.81030E-04
 -1        15-6.98736E-03-7.41682E-03-4.80033E-03-1.29118E-04 6.62394E-05-2.84105E-04
 -1        16 9.38896E-04 9.75219E-04 3.70404E-03-2.29482E-04-2.23873E-04 2.69745E-04
 -1        17-2.60044E-02-2.63893E-02-2.04874E-02-1.10152E-04-5.45292E-05-7.09747E-04
 -1        18-7.27099E-03-7.78377E-03-4.55526E-03 1.31484E-05 7.84468E-05-2.19257E-04
 -1        19-3.24728E-02-3.30107E-02-2.08257E-02-1.47902E-03-2.49095E-04 2.86740E-03
 -1        20-2.91903E-02-2.57951E-02-1.92436E-02 5.88318E-04 3.04202E-04-3.26403E-04
 -1        21-7.40664E-03-7.76001E-03-4.67072E-03 2.60497E-04 1.62059E-04-6.80472E-04
 -1        22 4.91153E-04 9.56018E-04 3.35697E-03-3.88931E-04 2.82749E-05 3.87274E-04
 -1        23-2.82905E-02-2.59780E-02-2.00004E-02 5.70572E-04-3.21888E-04 5.57392E-04
 -1        24-7.63920E-03-7.75266E-03-4.57556E-03 1.47228E-04 5.91667E-05-4.32248E-04
 -1        25 6.52759E-04 8.25032E-04 3.31433E-03-4.84245E-04 3.43859E-05 3.42428E-04
 -1        26-3.15474E-02-3.18982E-02-2.29848E-02-1.81231E-03-1.59724E-04 2.79534E-03
 -1        27 9.43561E-04 1.38488E-03 3.35566E-03-2.01387E-04 1.03397E-05 4.61497E-04
 -1        28-3.23451E-02-3.45368E-02-2.38504E-02-5.28710E-04-3.05212E-04 2.57049E-03
 -1        29-2.63327E-02-2.67532E-02-1.99322E-02-5.11739E-04-8.61920E-05-4.07153E-04
 -1        30-1.66066E-02-1.71952E-02-1.34757E-02 1.01101E-03-1.33187E-05-1.44545E-04
 -1        31-7.28972E-03-7.55354E-03-4.78626E-03-1.05384E-04 3.85057E-05-8.57269E-05
 -1        32-2.82291E-02-2.64753E-02-1.97052E-02 6.25216E-05-3.48024E-04 3.21304E-04
 -1        33-7.52023E-03-7.68257E-03-4.48431E-03 1.71678E-04 1.10946E-04-4.09930E-04
 -1        34-1.81612E-02-1.70792E-02-1.42548E-02 1.87895E-05 2.41283E-05-9.08946E-04
 -1        35-2.72663E-02-2.64658E-02-2.07497E-02-1.24469E-04-2.38074E-04 4.45445E-04
 -1        36-7.23117E-03-7.44557E-03-4.93011E-03 5.17349E-05 9.72085E-05-4.35016E-04
 -1        37-1.72837E-02-1.71140E-02-1.37856E-02 1.09281E-03-5.09815E-05 9.23718E-05
 -1        38-2.61016E-02-2.64219E-02-2.08634E-02 1.64859E-04-2.42788E-04 1.33751E-04
 -1        39-7.59041E-03-7.73470E-03-4.74655E-03 1.67183E-04 1.04803E-04-4.55679E-04
 -1        40-1.70358E-02-1.71608E-02-1.35864E-02 5.21719E-05 1.05334E-04-2.56911E-04
 -1        41 3.99967E-04 8.74784E-04 3.30069E-03-3.90364E-04-4.74349E-05 2.82900E-04
 -1        42-3.08150E-02-3.34957E-02-2.35589E-02-1.76572E-03-2.90620E-04 2.89353E-03
 -1        43-1.70229E-02-1.72740E-02-1.37415E-02 3.59624E-04-7.53361E-05 1.57685E-05
 -1        44-2.66737E-02-2.63834E-02-2.07351E-02-1.92576E-05-3.21107E-04 2.64338E-04
 -1        45-7.45302E-03-7.63509E-03-4.70238E-03 1.60040E-04 9.37909E-05-5.28280E-04
 -3
    1PSTEP                        68          17           1          
  100CL  117 17.00000000          45                     0   17           1
 -4  ERROR       1    1
 -5  STR(%)      1    1    0    0
 -1         1 1.87838E+01
 -1         2 2.71435E+01
 -1         3 1.87838E+01
 -1         4 2.71435E+01
 -1         5 9.70852E+00
 -1         6 2.71963E+01
 -1         7 2.71963E+01
 -1         8 2.71963E+01
 -1         9 2.57278E+01
 -1        10 2.71435E+01
 -1        11 2.71963E+01
 -1        12 2.42048E+01
 -1        13 2.71963E+01
 -1        14 2.64621E+01
 -1        15 2.64356E+01
 -1        16 2.71435E+01
 -1        17 2.71699E+01
 -1        18 2.71435E+01
 -1        19 1.84524E+01
 -1        20 1.84524E+01
 -1        21 2.29901E+01
 -1        22 1.87838E+01
 -1        23 2.57005E+01
 -1        24 2.14943E+01
 -1        25 2.29637E+01
 -1        26 1.84524E+01
 -1        27 2.29637E+01
 -1        28 2.71963E+01
 -1        29 2.71699E+01
 -1        30 2.64356E+01
 -1        31 2.71435E+01
 -1        32 2.71963E+01
 -1        33 2.29901E+01
 -1        34 2.57005E+01
 -1        35 2.71963E+01
 -1        36 2.71699E+01
 -1        37 2.64621E+01
 -1        38 2.57005E+01
 -1        39 2.56741E+01
 -1        40 2.56741E+01
 -1        41 2.29637E+01
 -1        42 2.71963E+01
 -1        43 2.71699E+01
 -1        44 2.71963E+01
 -1        45 2.71699E+01
 -3
    1PSTEP                        69          18           1          
  100CL  118 18.00000000          45                     0   18           1
 -4  DISP        4    1
 -5  D1          1    2    1    0
 -5  D2          1    2    2    0
 -5  D3          1    2    3    0
 -5  ALL         1    2    0    0    1ALL
 -1         1-8.44664E+00 2.29125E-02-1.15737E+00
 -1         2-4.47294E+00 6.85947E-02 0.00000E+00
 -1         3-3.99702E+00 0.00000E+00-1.21346E+00
 -1         4 0.00000E+00 0.00000E+00 0.00000E+00
 -1         5 1.14506E+01-1.61833E+01 1.05097E+01
 -1         6 1.38788E+01-1.66258E+01 0.00000E+00
 -1         7 1.52813E+01 0.00000E+00 1.10010E+01
 -1         8 1.72293E+01 0.00000E+00 0.00000E+00
 -1         9-3.66260E-01-9.26966E+00 0.00000E+00
 -1        10 4.05992E+00 0.00000E+00 0.00000E+00
 -1        11-4.04312E+00-9.22235E+00 7.52833E+00
 -1        12 4.79039E-01 0.00000E+00 7.40974E+00
 -1        13 1.63405E+01-8.31965E+00 0.00000E+00
 -1        14 5.67295E+00-1.37673E+01 0.00000E+00
 -1        15-3.59982E+00-4.35114E+00 0.00000E+00
 -1        16-1.12622E+00 1.95010E-02 0.00000E+00
 -1        17 9.69703E+00 0.00000E+00 0.00000E+00
 -1        18 9.27276E-01 0.00000E+00 0.00000E+00
 -1        19 1.38525E+01-8.31670E+00 1.05936E+01
 -1        20 3.49252E+00-1.34286E+01 1.01586E+01
 -1        21-7.30286E+00-4.41222E+00 2.95806E+00
 -1        22-5.17795E+00 2.89728E-02-1.19004E+00
 -1        23 7.04957E+00 0.00000E+00 1.03882E+01
 -1        24-2.95622E+00 0.00000E+00 2.86813E+00
 -1        25-5.52904E+00 3.26012E-02-5.68698E-01
 -1        26 1.24425E+01-1.62659E+01 5.63267E+00
 -1        27-9.50246E-01 0.00000E+00-5.77253E-01
 -1        28 1.64622E+01 0.00000E+00 5.61579E+00
 -1        29 8.71972E+00-6.75171E+00 0.00000E+00
 -1        30 3.03733E+00-4.62844E+00 0.00000E+00
 -1        31-1.51816E-01-2.21855E+00 0.00000E+00
 -1        32 6.21118E+00-6.64566E+00 1.01868E+01
 -1        33-4.05613E+00-2.21876E+00 2.89711E+00
 -1        34-6.07914E-01-4.60027E+00 7.46815E+00
 -1        35 5.06019E+00-1.35483E+01 5.03465E+00
 -1        36-4.45164E+00-4.37773E+00 1.52117E+00
 -1        37-1.19642E+00-9.23540E+00 3.70246E+00
 -1        38 9.06628E+00 0.00000E+00 5.28842E+00
 -1        39 1.34604E-02 0.00000E+00 1.43559E+00
 -1        40 3.26369E+00 0.00000E+00 3.63336E+00
 -1        41-2.18795E+00 3.48447E-02-5.83933E-01
 -1        42 1.51455E+01-8.34238E+00 5.65977E+00
 -1        43 2.11954E+00-4.62134E+00 3.70562E+00
 -1        44 8.00145E+00-6.79188E+00 5.13994E+00
 -1        45-1.07436E+00-2.21917E+00 1.49055E+00
 -3
    1PSTEP                        70          18           1          
  100CL  118 18.00000000          45                     0   18           1
 -4  STRESS      6    1
 -5  SXX         1    4    1    1
 -5  SYY         1    4    2    2
 -5  SZZ         1    4    3    3
 -5  SXY         1    4    1    2
 -5  SYZ         1    4    2    3
 -5  SZX         1    4    3    1
 -1         1-1.09199E+00-6.29172E-01-9.02672E-01 5.83591E-01 3.01902E-01-7.96204E-01
 -1         2-3.92246E-01-6.22271E-01-3.14311E+00 3.80853E-01 2.75759E-02-1.45824E-01
 -1         3-1.37577E-01-1.80062E+00-3.78547E-01-4.15620E-02 8.21085E-03-3.82115E-01
 -1         4 3.13234E+00-1.74065E+00-2.81279E+00-3.03212E-02 1.26562E-02 4.45624E-02
 -1         5-3.03964E+00-1.06322E+00-1.68250E+00-1.20654E+00 1.40881E-01 1.82706E+00
 -1         6 2.20282E-01-2.08977E+00-5.55596E+00-1.72048E+00 1.16717E-01 9.77533E-01
 -1         7-6.51092E-01-5.38005E+00-2.18721E+00-7.40953E-01-1.99141E-01 2.29776E+00
 -1         8 4.66600E+00-1.98429E+00-3.66556E+00 7.03841E-03 2.64322E-02 2.77083E-01
 -1         9-2.40998E+00 8.14488E-01 3.18392E+00 8.59395E-01-1.50022E-01-2.34152E-01
 -1        10 5.92099E+00 2.74218E+00 5.42253E+00 1.79987E-01-1.98445E-01-2.78553E-01
 -1        11-3.92787E+00 1.80018E+00 2.49009E+00 4.22863E-01-2.34023E-01-5.63120E-01
 -1        12-2.53734E+00 2.30145E+00 5.88327E-01 9.72430E-02 8.56259E-02-5.86924E-01
 -1        13 1.12414E-01-2.95243E+00-7.27093E+00-5.74343E-01 5.75897E-01 6.23188E-01
 -1        14-1.15959E+00 2.52944E-01 3.22898E+00-1.43076E+00-3.87951E-01-5.20075E-01
 -1        15-1.21457E+00-6.45439E-01-1.04858E-01 9.58032E-01-1.43665E-01-2.80539E-01
 -1        16 1.09907E+00-1.10242E+00-3.25856E+00 3.06329E-01 5.96157E-02 2.63466E-01
 -1        17 4.85084E+00 1.99324E+00 2.64763E+00-1.05613E-01-1.38094E-01-9.60924E-01
 -1        18 2.76925E+00-2.65226E-01 7.04213E-01 2.65670E-01-4.75199E-02 1.72652E-01
 -1        19-1.07244E+00-4.03338E+00-2.10412E+00-1.34251E+00-6.76994E-02 2.19974E+00
 -1        20-6.00872E+00 2.45903E+00 3.44150E+00-3.61718E-02 2.81433E-02 3.42387E-02
 -1        21-3.67596E+00-5.78811E-02 5.65843E-01 1.27339E+00-5.16622E-02-1.58395E+00
 -1        22-2.19270E-01-1.64266E+00-3.93057E-01 4.17816E-01 2.44539E-01-2.83391E-01
 -1        23-3.26783E+00 1.58748E+00 1.55487E+00 4.06933E-01-2.70828E-01 8.75272E-01
 -1        24-2.81237E+00-3.92654E-01 1.80851E-01 7.54077E-02-9.29790E-03-9.89674E-01
 -1        25 1.66961E-02-1.49974E-01-2.77038E+00 2.13632E-01 2.63577E-01-6.74859E-01
 -1        26-3.76729E-01-1.58307E+00-5.78495E+00-1.69648E+00-4.88968E-02 2.13393E+00
 -1        27 2.38658E+00-1.67915E+00-1.67389E+00-2.10430E-01 2.04869E-02-4.61079E-01
 -1        28 2.05689E+00-4.50823E+00-3.26095E+00-2.89987E-01-1.71993E-01 1.95573E+00
 -1        29 3.72925E+00 1.61681E+00 3.41815E+00-7.31414E-01-2.01987E-01-5.01980E-01
 -1        30 2.48744E+00 2.04296E+00 3.86344E+00 7.74824E-01-9.99020E-02-1.63076E-01
 -1        31 2.08138E+00 2.16762E-01 2.86200E-01 3.63077E-01-1.26764E-01-1.46767E-02
 -1        32-3.31760E+00 3.89154E-01 2.53702E+00-6.13074E-01-3.50650E-01 7.83025E-01
 -1        33-3.05562E+00-9.27350E-01 2.99372E-01 8.96556E-01-9.49602E-02-1.12105E+00
 -1        34-3.33828E+00 1.48571E+00 6.53234E-01-6.15358E-02-4.74473E-03-5.28540E-01
 -1        35-1.79155E+00 1.15709E+00 4.07095E-01-9.22112E-01-2.03708E-01 1.05482E+00
 -1        36-1.71274E+00-3.04630E-01-1.50546E+00 8.97075E-01 2.92373E-02-1.28441E+00
 -1        37-3.65420E+00 5.38779E-01 1.10694E+00 7.45688E-01-3.49976E-02 2.04818E-01
 -1        38 2.63126E+00 1.69039E+00 6.20175E-01 2.23890E-01-1.94296E-01 4.37542E-01
 -1        39 6.14796E-01-3.86874E-01-1.27695E+00 1.10697E-01 4.64786E-02-9.31993E-01
 -1        40 1.84618E+00 2.38559E+00 2.53559E+00 3.35200E-02 1.57327E-01-1.82729E-01
 -1        41 1.30335E+00-1.25679E+00-2.20431E+00 9.68987E-02 2.09414E-01-3.59515E-01
 -1        42 6.51704E-01-5.31195E+00-6.99826E+00-1.57440E+00-1.15132E-02 2.23328E+00
 -1        43 2.04554E+00 1.66074E+00 2.97838E+00 1.85402E-01-1.42477E-01 7.78584E-03
 -1        44 1.00582E+00 9.32195E-01 6.09279E-01-6.08353E-01-3.06727E-01 7.84644E-01
 -1        45-2.08067E-01-9.00327E-01-1.03447E+00 7.41957E-01-2.60909E-02-1.12325E+00
 -3
    1PSTEP                        71          18           1          
  100CL  118 18.00000000          45                     0   18           1
 -4  TOSTRAIN    6    1
 -5  EXX         1    4    1    1
 -5  EYY         1    4    2    2
 -5  EZZ         1    4    3    3
 -5  EXY         1    4    1    2
 -5  EYZ         1    4    2    3
 -5  EZX         1    4    3    1
 -1         1-3.43834E-04-1.24675E-04 2.40834E-03-2.45989E-04 7.60477E-05 3.82258E-05
 -1         2 5.81532E-04 6.63348E-04 2.66987E-03-4.84437E-04-6.86232E-05 1.63450E-04
 -1         3 2.29609E-04 4.40379E-04 2.66275E-03-2.03216E-04 1.74486E-05 4.91652E-04
 -1         4 4.89558E-04 3.30752E-04 2.64125E-03-1.36547E-04-6.47403E-05 2.35439E-04
 -1         5-3.26115E-02-3.05659E-02-1.79968E-02-1.72735E-03 2.67694E-04 3.11330E-03
 -1         6-3.21595E-02-3.37502E-02-2.44396E-02-2.12933E-03 3.38758E-06 1.62995E-03
 -1         7-3.20930E-02-3.41248E-02-2.02033E-02-1.17444E-03-5.15576E-04 3.60804E-03
 -1         8-3.14440E-02-3.45977E-02-2.48497E-02-2.93400E-04-3.31711E-05 8.75206E-04
 -1         9-1.87371E-02-1.85903E-02-1.45629E-02 1.29675E-03-8.97113E-05-3.56232E-04
 -1        10-1.76101E-02-1.87792E-02-1.44745E-02 2.66209E-04-6.98377E-05-3.14725E-04
 -1        11-2.07990E-02-1.88979E-02-1.59329E-02 7.02004E-04-1.33565E-04-8.67995E-04
 -1        12-1.98600E-02-1.83573E-02-1.58665E-02 1.74342E-04 1.15061E-04-1.04202E-03
 -1        13-3.14906E-02-3.32512E-02-2.43708E-02-8.61318E-04 6.87163E-04 1.25044E-03
 -1        14-2.84329E-02-2.80878E-02-1.98916E-02-1.13313E-03-4.59195E-04-7.91032E-04
 -1        15-8.22969E-03-8.55577E-03-5.83776E-03 7.99494E-05 3.19875E-05-3.12901E-04
 -1        16 2.78733E-04 1.37261E-04 2.65282E-03-1.84605E-04-2.00724E-04 3.23321E-04
 -1        17-2.62859E-02-2.71208E-02-2.05964E-02-1.38772E-04-9.19456E-05-9.69886E-04
 -1        18-8.13601E-03-8.92525E-03-5.59209E-03 6.02617E-05 6.39097E-05-1.58721E-04
 -1        19-3.13471E-02-3.23663E-02-1.82240E-02-1.94402E-03-2.65351E-04 3.60432E-03
 -1        20-3.09252E-02-2.62314E-02-1.89844E-02 5.36626E-04 3.04990E-04-2.84433E-04
 -1        21-8.82465E-03-8.81214E-03-5.66814E-03 4.91276E-04 1.38234E-04-9.47900E-04
 -1        22-2.55830E-04 4.58722E-05 2.54237E-03-3.20896E-04 6.78236E-05 3.41590E-04
 -1        23-2.95451E-02-2.65388E-02-1.99377E-02 6.71473E-04-4.04595E-04 8.63126E-04
 -1        24-8.96997E-03-8.83130E-03-5.61219E-03 1.48430E-04 5.61973E-05-6.04582E-04
 -1        25-7.77965E-05 5.02587E-05 2.31477E-03-4.40095E-04 7.61506E-05 2.41336E-04
 -1        26-3.03132E-02-3.07936E-02-2.10192E-02-2.40361E-03-1.73209E-04 3.50913E-03
 -1        27 4.00620E-04 4.51303E-04 2.42695E-03-2.41614E-04 1.33289E-05 3.88188E-04
 -1        28-3.10674E-02-3.43507E-02-2.20017E-02-6.48575E-04-3.65207E-04 3.20325E-03
 -1        29-2.68238E-02-2.75081E-02-1.99042E-02-7.54153E-04-1.40595E-04-5.23230E-04
 -1        30-1.79359E-02-1.85391E-02-1.45755E-02 1.17544E-03-3.53894E-05-1.80953E-04
 -1        31-8.18831E-03-8.65978E-03-5.85043E-03-3.94914E-05 8.75072E-06-6.94601E-05
 -1        32-2.94866E-02-2.72671E-02-1.95545E-02-1.48934E-04-4.45528E-04 5.95463E-04
 -1        33-8.87927E-03-8.81116E-03-5.50833E-03 3.49504E-04 8.53611E-05-6.12895E-04
 -1        34-2.01438E-02-1.84445E-02-1.57599E-02-2.17631E-05 2.42082E-05-9.90007E-04
 -1        35-2.83218E-02-2.71088E-02-2.10025E-02-4.43214E-04-2.88406E-04 7.65401E-04
 -1        36-8.48186E-03-8.53238E-03-6.10507E-03 2.32105E-04 9.87784E-05-6.82071E-04
 -1        37-1.92144E-02-1.84816E-02-1.50565E-02 1.22668E-03-5.36356E-05 1.61668E-04
 -1        38-2.65775E-02-2.71236E-02-2.11498E-02 2.18579E-04-2.98717E-04 2.75822E-04
 -1        39-8.63410E-03-8.83292E-03-5.93815E-03 1.72599E-04 1.08139E-04-6.20079E-04
 -1        40-1.84138E-02-1.84416E-02-1.48193E-02 5.99536E-05 1.42765E-04-2.73036E-04
 -1        41-2.22815E-04 6.23575E-07 2.34114E-03-3.71121E-04-9.44064E-06 2.32690E-04
 -1        42-2.92751E-02-3.29681E-02-2.17120E-02-2.32020E-03-2.86418E-04 3.65439E-03
 -1        43-1.84439E-02-1.87242E-02-1.50130E-02 3.84001E-04-1.18058E-04 4.71141E-05
 -1        44-2.73159E-02-2.71317E-02-2.09739E-02-2.06007E-04-4.00388E-04 4.92751E-04
 -1        45-8.57664E-03-8.78148E-03-5.85230E-03 3.10194E-04 8.36770E-05-7.35691E-04
 -3
    1PSTEP                        72          18           1          
  100CL  118 18.00000000          45                     0   18           1
 -4  ERROR       1    1
 -5  STR(%)      1    1    0    0
 -1         1 1.73520E+01
 -1         2 2.70709E+01
 -1         3 1.77341E+01
 -1         4 2.70709E+01
 -1         5 9.64326E+00
 -1         6 2.66989E+01
 -1         7 2.66989E+01
 -1         8 2.66989E+01
 -1         9 2.54323E+01
 -1        10 2.70709E+01
 -1        11 2.70709E+01
 -1        12 2.36651E+01
 -1        13 2.66989E+01
 -1        14 2.60656E+01
 -1        15 2.62516E+01
 -1        16 2.70709E+01
 -1        17 2.68849E+01
 -1        18 2.70709E+01
 -1        19 1.81711E+01
 -1        20 1.83571E+01
 -1        21 2.22115E+01
 -1        22 1.75430E+01
 -1        23 2.51820E+01
 -1        24 2.06996E+01
 -1        25 2.22115E+01
 -1        26 1.81711E+01
 -1        27 2.24025E+01
 -1        28 2.66989E+01
 -1        29 2.68849E+01
 -1        30 2.62516E+01
 -1        31 2.70709E+01
 -1        32 2.68849E+01
 -1        33 2.24025E+01
 -1        34 2.53680E+01
 -1        35 2.68849E+01
 -1        36 2.70709E+01
 -1        37 2.62516E+01
 -1        38 2.51820E+01
 -1        39 2.53680E+01
 -1        40 2.53680E+01
 -1        41 2.22115E+01
 -1        42 2.66989E+01
 -1        43 2.70709E+01
 -1        44 2.68849E+01
 -1        45 2.70709E+01
 -3
    1PSTEP                        73          19           1          
  100CL  119 19.00000000          45                     0   19           1
 -4  DISP        4    1
 -5  D1          1    2    1    0
 -5  D2          1    2    2    0
 -5  D3          1    2    3    0
 -5  ALL         1    2    0    0    1ALL
 -1         1-8.34569E+00-4.38757E-01-6.48887E-01
 -1         2-4.53468E+00-3.52787E-01 0.00000E+00
 -1         3-3.96351E+00 0.00000E+00-7.44469E-01
 -1         4 0.00000E+00 0.00000E+00 0.00000E+00
 -1         5 1.30737E+01-1.56477E+01 9.24889E+00
 -1         6 1.48855E+01-1.61491E+01 0.00000E+00
 -1         7 1.65222E+01 0.00000E+00 9.80252E+00
 -1         8 1.76420E+01 0.00000E+00 0.00000E+00
 -1         9 1.87318E-01-9.90476E+00 0.00000E+00
 -1        10 4.46409E+00 0.00000E+00 0.00000E+00
 -1        11-3.23031E+00-9.86976E+00 8.11862E+00
 -1        12 1.17509E+00 0.00000E+00 7.97954E+00
 -1        13 1.69070E+01-8.09595E+00 0.00000E+00
 -1        14 6.59350E+00-1.40582E+01 0.00000E+00
 -1        15-3.40561E+00-4.90601E+00 0.00000E+00
 -1        16-1.12904E+00-2.01174E-01 0.00000E+00
 -1        17 1.02567E+01 0.00000E+00 0.00000E+00
 -1        18 1.11022E+00 0.00000E+00 0.00000E+00
 -1        19 1.50455E+01-8.11814E+00 9.34256E+00
 -1        20 5.05894E+00-1.36393E+01 1.00459E+01
 -1        21-6.92303E+00-4.94141E+00 3.47962E+00
 -1        22-5.11526E+00-2.12385E-01-7.03179E-01
 -1        23 8.21700E+00 0.00000E+00 1.03318E+01
 -1        24-2.65708E+00 0.00000E+00 3.40532E+00
 -1        25-5.52357E+00-4.09209E-01-2.97497E-01
 -1        26 1.33927E+01-1.57394E+01 5.09477E+00
 -1        27-9.09437E-01 0.00000E+00-3.26581E-01
 -1        28 1.70276E+01 0.00000E+00 5.05439E+00
 -1        29 9.36704E+00-6.87609E+00 0.00000E+00
 -1        30 3.48999E+00-4.93981E+00 0.00000E+00
 -1        31 5.83236E-02-2.50086E+00 0.00000E+00
 -1        32 7.45746E+00-6.73924E+00 1.00847E+01
 -1        33-3.73228E+00-2.49124E+00 3.43161E+00
 -1        34 1.21998E-01-4.91283E+00 8.04902E+00
 -1        35 6.09265E+00-1.37907E+01 4.97374E+00
 -1        36-4.18933E+00-4.92529E+00 1.79672E+00
 -1        37-5.66251E-01-9.86464E+00 3.97023E+00
 -1        38 9.78201E+00 0.00000E+00 5.28514E+00
 -1        39 2.44176E-01 0.00000E+00 1.70833E+00
 -1        40 3.76046E+00 0.00000E+00 3.88892E+00
 -1        41-2.15651E+00-2.04236E-01-3.15806E-01
 -1        42 1.57376E+01-8.14126E+00 5.12092E+00
 -1        43 2.64498E+00-4.93241E+00 3.98091E+00
 -1        44 8.77100E+00-6.92398E+00 5.10544E+00
 -1        45-8.16652E-01-2.49715E+00 1.76395E+00
 -3
    1PSTEP                        74          19           1          
  100CL  119 19.00000000          45                     0   19           1
 -4  STRESS      6    1
 -5  SXX         1    4    1    1
 -5  SYY         1    4    2    2
 -5  SZZ         1    4    3    3
 -5  SXY         1    4    1    2
 -5  SYZ         1    4    2    3
 -5  SZX         1    4    3    1
 -1         1-1.31100E+00-8.10066E-01-1.10180E+00 7.30275E-01 3.53718E-01-9.57337E-01
 -1         2-5.12485E-01-7.99343E-01-3.70228E+00 5.07210E-01 4.11352E-02-1.86546E-01
 -1         3-2.21608E-01-2.29065E+00-4.73234E-01-3.01303E-02 7.23192E-03-5.07757E-01
 -1         4 3.73689E+00-2.11183E+00-3.32982E+00-2.46489E-02 2.18409E-02 3.81733E-02
 -1         5-3.43021E+00-1.21121E+00-1.89235E+00-1.37045E+00 1.56465E-01 2.05296E+00
 -1         6 2.12740E-01-2.41951E+00-6.37382E+00-1.96730E+00 1.41368E-01 1.10482E+00
 -1         7-6.95099E-01-6.19869E+00-2.46986E+00-8.36386E-01-2.13779E-01 2.59426E+00
 -1         8 5.34353E+00-2.37820E+00-4.25250E+00 2.33790E-02 3.22418E-02 2.92639E-01
 -1         9-2.93109E+00 9.83631E-01 3.71413E+00 9.38150E-01-1.73812E-01-2.54249E-01
 -1        10 6.93305E+00 3.26520E+00 6.31975E+00 1.97620E-01-2.39200E-01-3.14199E-01
 -1        11-4.57328E+00 2.12722E+00 2.87550E+00 4.53649E-01-2.76668E-01-6.09315E-01
 -1        12-2.91198E+00 2.75716E+00 7.01875E-01 1.03642E-01 9.65616E-02-6.27672E-01
 -1        13 1.37668E-01-3.40624E+00-8.28770E+00-6.51378E-01 6.57936E-01 6.94114E-01
 -1        14-1.43386E+00 2.32533E-01 3.59648E+00-1.67727E+00-4.41150E-01-5.75152E-01
 -1        15-1.50010E+00-7.41920E-01-2.47352E-02 1.15784E+00-1.77900E-01-3.03979E-01
 -1        16 1.25310E+00-1.36951E+00-3.93003E+00 3.87755E-01 9.43104E-02 2.87019E-01
 -1        17 5.58900E+00 2.22558E+00 2.97708E+00-1.19418E-01-1.61173E-01-1.10275E+00
 -1        18 3.30028E+00-2.14693E-01 8.86013E-01 3.13480E-01-6.38085E-02 2.30396E-01
 -1        19-1.15378E+00-4.61146E+00-2.36353E+00-1.52282E+00-6.78372E-02 2.47947E+00
 -1        20-6.93910E+00 2.77876E+00 3.86572E+00-8.39227E-02 1.74064E-02 6.72742E-02
 -1        21-4.31941E+00 5.16180E-02 7.59266E-01 1.49014E+00-7.81004E-02-1.81739E+00
 -1        22-3.01004E-01-2.09710E+00-5.39568E-01 5.38050E-01 2.86254E-01-3.77293E-01
 -1        23-3.75039E+00 1.77532E+00 1.74623E+00 4.52329E-01-3.04360E-01 1.02213E+00
 -1        24-3.28467E+00-3.85318E-01 2.58477E-01 7.48537E-02-1.64730E-02-1.13970E+00
 -1        25-5.86648E-02-2.94660E-01-3.35109E+00 3.09794E-01 3.07678E-01-8.34047E-01
 -1        26-4.09710E-01-1.79668E+00-6.54247E+00-1.92923E+00-5.01123E-02 2.40297E+00
 -1        27 2.79223E+00-2.14346E+00-1.98013E+00-2.28889E-01 2.25904E-02-5.90664E-01
 -1        28 2.38144E+00-5.21084E+00-3.72269E+00-3.18393E-01-1.89753E-01 2.19845E+00
 -1        29 4.28323E+00 1.82255E+00 3.83973E+00-8.44527E-01-2.34317E-01-5.71753E-01
 -1        30 2.87210E+00 2.44202E+00 4.51373E+00 8.47738E-01-1.17621E-01-1.82921E-01
 -1        31 2.48690E+00 3.11968E-01 4.33448E-01 4.42563E-01-1.53661E-01-6.59925E-03
 -1        32-3.81530E+00 3.83772E-01 2.85007E+00-7.39560E-01-3.97500E-01 9.23943E-01
 -1        33-3.59205E+00-1.03242E+00 3.83018E-01 1.05152E+00-1.23693E-01-1.29828E+00
 -1        34-3.83670E+00 1.78694E+00 7.70625E-01-7.70890E-02-6.51673E-03-5.60163E-01
 -1        35-2.11383E+00 1.28910E+00 3.87489E-01-1.09915E+00-2.27316E-01 1.23470E+00
 -1        36-2.04583E+00-3.28935E-01-1.67903E+00 1.06618E+00 2.61981E-02-1.49013E+00
 -1        37-4.33656E+00 6.59160E-01 1.29576E+00 8.05682E-01-3.69571E-02 2.41445E-01
 -1        38 2.98770E+00 1.87841E+00 6.30276E-01 2.56068E-01-2.18171E-01 5.19269E-01
 -1        39 8.04449E-01-3.54922E-01-1.42358E+00 1.14683E-01 4.46705E-02-1.06750E+00
 -1        40 2.17379E+00 2.85550E+00 2.96272E+00 3.61233E-02 1.80717E-01-1.95617E-01
 -1        41 1.54219E+00-1.60895E+00-2.66638E+00 1.58128E-01 2.53146E-01-4.55035E-01
 -1        42 7.81789E-01-6.05256E+00-7.90187E+00-1.78571E+00 8.34053E-04 2.51752E+00
 -1        43 2.39764E+00 1.98212E+00 3.47633E+00 1.92915E-01-1.67825E-01 1.30320E-02
 -1        44 1.14587E+00 9.96928E-01 6.25964E-01-7.27861E-01-3.45639E-01 9.22707E-01
 -1        45-2.05564E-01-9.95881E-01-1.15394E+00 8.68791E-01-3.94881E-02-1.28879E+00
 -3
    1PSTEP                        75          19           1          
  100CL  119 19.00000000          45                     0   19           1
 -4  TOSTRAIN    6    1
 -5  EXX         1    4    1    1
 -5  EYY         1    4    2    2
 -5  EZZ         1    4    3    3
 -5  EXY         1    4    1    2
 -5  EYZ         1    4    2    3
 -5  EZX         1    4    3    1
 -1         1-1.15276E-03-9.33782E-04 1.56173E-03-1.39730E-04 1.29816E-04-8.75491E-05
 -1         2-2.01122E-04-1.48663E-04 1.60313E-03-4.02876E-04-5.79331E-05 1.53853E-04
 -1         3-5.04608E-04-5.05913E-04 1.85422E-03-2.18220E-04 1.78364E-05 4.13719E-04
 -1         4 3.31468E-05-6.07786E-04 1.57889E-03-1.52926E-04-5.84966E-05 2.67684E-04
 -1         5-3.14467E-02-2.89407E-02-1.47350E-02-2.18768E-03 3.13521E-04 3.77378E-03
 -1         6-3.08607E-02-3.28474E-02-2.26818E-02-2.77033E-03 4.57113E-05 2.02862E-03
 -1         7-3.06218E-02-3.35518E-02-1.73449E-02-1.47537E-03-5.79524E-04 4.44120E-03
 -1         8-2.96665E-02-3.40607E-02-2.31469E-02-3.08122E-04-3.10773E-05 9.93847E-04
 -1         9-2.05736E-02-1.99099E-02-1.55244E-02 1.47250E-03-1.25485E-04-4.03353E-04
 -1        10-1.85661E-02-2.01447E-02-1.54573E-02 3.12466E-04-1.36283E-04-3.89181E-04
 -1        11-2.30931E-02-2.03581E-02-1.73790E-02 7.59786E-04-2.03271E-04-9.55500E-04
 -1        12-2.17559E-02-1.95629E-02-1.73409E-02 1.93025E-04 1.38865E-04-1.14743E-03
 -1        13-2.99066E-02-3.22978E-02-2.25876E-02-1.10395E-03 8.74452E-04 1.50288E-03
 -1        14-2.93374E-02-2.87786E-02-1.95385E-02-1.64381E-03-5.80365E-04-9.08784E-04
 -1        15-9.46277E-03-9.67071E-03-6.83044E-03 3.14670E-04-6.66287E-06-3.43059E-04
 -1        16-3.64561E-04-7.05492E-04 1.57505E-03-1.32687E-04-1.73185E-04 3.81043E-04
 -1        17-2.63030E-02-2.76378E-02-2.04225E-02-1.70176E-04-1.33254E-04-1.25498E-03
 -1        18-8.94595E-03-1.00405E-02-6.58598E-03 1.12792E-04 4.71031E-05-8.96346E-05
 -1        19-2.97433E-02-3.12951E-02-1.50051E-02-2.45390E-03-2.81888E-04 4.41043E-03
 -1        20-3.25426E-02-2.64229E-02-1.84072E-02 4.74293E-04 3.04065E-04-2.34478E-04
 -1        21-1.02512E-02-9.82772E-03-6.61692E-03 7.47416E-04 1.10503E-04-1.24213E-03
 -1        22-9.93736E-04-8.77456E-04 1.73213E-03-2.41869E-04 1.11879E-04 2.87518E-04
 -1        23-3.06327E-02-2.68685E-02-1.95738E-02 7.80124E-04-4.94284E-04 1.20156E-03
 -1        24-1.02977E-02-9.87667E-03-6.60526E-03 1.48807E-04 5.24786E-05-7.94331E-04
 -1        25-7.98394E-04-7.20717E-04 1.29781E-03-3.86986E-04 1.22586E-04 1.25705E-04
 -1        26-2.85935E-02-2.92151E-02-1.84976E-02-3.05296E-03-1.87386E-04 4.28905E-03
 -1        27-1.11928E-04-5.01435E-04 1.48899E-03-2.85079E-04 1.66452E-05 3.02704E-04
 -1        28-2.92923E-02-3.37818E-02-1.96048E-02-7.79091E-04-4.29784E-04 3.89433E-03
 -1        29-2.70727E-02-2.80482E-02-1.95812E-02-1.02157E-03-2.00029E-04-6.49569E-04
 -1        30-1.91943E-02-1.98093E-02-1.55672E-02 1.35195E-03-6.00452E-05-2.20478E-04
 -1        31-9.03579E-03-9.73719E-03-6.87318E-03 3.50691E-05-2.47237E-05-5.07268E-05
 -1        32-3.05767E-02-2.78518E-02-1.90952E-02-3.85246E-04-5.51574E-04 9.00066E-04
 -1        33-1.02392E-02-9.91286E-03-6.48799E-03 5.46910E-04 5.60316E-05-8.36956E-04
 -1        34-2.21205E-02-1.97393E-02-1.71992E-02-6.69367E-05 2.41724E-05-1.07467E-03
 -1        35-2.91923E-02-2.75266E-02-2.09878E-02-7.98454E-04-3.42550E-04 1.11965E-03
 -1        36-9.72251E-03-9.58886E-03-7.25059E-03 4.33425E-04 9.99127E-05-9.55071E-04
 -1        37-2.11385E-02-1.97790E-02-1.62371E-02 1.36886E-03-5.63621E-05 2.38262E-04
 -1        38-2.68098E-02-2.76075E-02-2.11712E-02 2.77206E-04-3.59500E-04 4.34106E-04
 -1        39-9.64104E-03-9.90028E-03-7.10353E-03 1.77556E-04 1.11125E-04-8.00738E-04
 -1        40-1.97241E-02-1.96412E-02-1.59589E-02 6.82624E-05 1.83857E-04-2.89390E-04
 -1        41-8.20885E-04-8.81910E-04 1.36897E-03-3.46693E-04 3.33570E-05 1.74188E-04
 -1        42-2.72178E-02-3.20242E-02-1.93193E-02-2.92806E-03-2.79549E-04 4.48625E-03
 -1        43-1.98018E-02-2.01125E-02-1.61946E-02 4.08879E-04-1.65343E-04 8.18076E-05
 -1        44-2.77295E-02-2.76680E-02-2.09435E-02-4.14254E-04-4.86704E-04 7.46179E-04
 -1        45-9.67365E-03-9.90333E-03-6.97148E-03 4.76765E-04 7.17460E-05-9.63864E-04
 -3
    1PSTEP                        76          19           1          
  100CL  119 19.00000000          45                     0   19           1
 -4  ERROR       1    1
 -5  STR(%)      1    1    0    0
 -1         1 1.62573E+01
 -1         2 2.70090E+01
 -1         3 1.78843E+01
 -1         4 2.70090E+01
 -1         5 9.58813E+00
 -1         6 2.62940E+01
 -1         7 2.62940E+01
 -1         8 2.62940E+01
 -1         9 2.52004E+01
 -1        10 2.70090E+01
 -1        11 2.70090E+01
 -1        12 2.32232E+01
 -1        13 2.62940E+01
 -1        14 2.57472E+01
 -1        15 2.61047E+01
 -1        16 2.70090E+01
 -1        17 2.66515E+01
 -1        18 2.70090E+01
 -1        19 1.79411E+01
 -1        20 1.82986E+01
 -1        21 2.16332E+01
 -1        22 1.70708E+01
 -1        23 2.47586E+01
 -1        24 2.05537E+01
 -1        25 2.16332E+01
 -1        26 1.79411E+01
 -1        27 2.24467E+01
 -1        28 2.62940E+01
 -1        29 2.66515E+01
 -1        30 2.61047E+01
 -1        31 2.70090E+01
 -1        32 2.66515E+01
 -1        33 2.24467E+01
 -1        34 2.51161E+01
 -1        35 2.66515E+01
 -1        36 2.70090E+01
 -1        37 2.61047E+01
 -1        38 2.47586E+01
 -1        39 2.51161E+01
 -1        40 2.51161E+01
 -1        41 2.16332E+01
 -1        42 2.62940E+01
 -1        43 2.70090E+01
 -1        44 2.66515E+01
 -1        45 2.70090E+01
 -3
    1PSTEP                        77          20           1          
  100CL  120 20.00000000          45                     0   20           1
 -4  DISP        4    1
 -5  D1          1    2    1    0
 -5  D2          1    2    2    0
 -5  D3          1    2    3    0
 -5  ALL         1    2    0    0    1ALL
 -1         1-8.17382E+00-9.07011E-01-1.31681E-01
 -1         2-4.57279E+00-7.76573E-01 0.00000E+00
 -1         3-3.89678E+00 0.00000E+00-2.70842E-01
 -1         4 0.00000E+00 0.00000E+00 0.00000E+00
 -1         5 1.47126E+01-1.48979E+01 7.70856E+00
 -1         6 1.58198E+01-1.54620E+01 0.00000E+00
 -1         7 1.77107E+01 0.00000E+00 8.32845E+00
 -1         8 1.78942E+01 0.00000E+00 0.00000E+00
 -1         9 7.59834E-01-1.05028E+01 0.00000E+00
 -1        10 4.84075E+00 0.00000E+00 0.00000E+00
 -1        11-2.34244E+00-1.04817E+01 8.66342E+00
 -1        12 1.90279E+00 0.00000E+00 8.50235E+00
 -1        13 1.73359E+01-7.76873E+00 0.00000E+00
 -1        14 7.51027E+00-1.42436E+01 0.00000E+00
 -1        15-3.18786E+00-5.44806E+00 0.00000E+00
 -1        16-1.12453E+00-4.24077E-01 0.00000E+00
 -1        17 1.07458E+01 0.00000E+00 0.00000E+00
 -1        18 1.28468E+00 0.00000E+00 0.00000E+00
 -1        19 1.61901E+01-7.81896E+00 7.81262E+00
 -1        20 6.71074E+00-1.37382E+01 9.78916E+00
 -1        21-6.47146E+00-5.45464E+00 3.98128E+00
 -1        22-5.00812E+00-4.58328E-01-2.09791E-01
 -1        23 9.40180E+00 0.00000E+00 1.01357E+01
 -1        24-2.32467E+00 0.00000E+00 3.92487E+00
 -1        25-5.47933E+00-8.55471E-01-2.00927E-02
 -1        26 1.42740E+01-1.49993E+01 4.42530E+00
 -1        27-8.56969E-01 0.00000E+00-7.19449E-02
 -1        28 1.74548E+01 0.00000E+00 4.35883E+00
 -1        29 9.96001E+00-6.94618E+00 0.00000E+00
 -1        30 3.92743E+00-5.23201E+00 0.00000E+00
 -1        31 2.70328E-01-2.77703E+00 0.00000E+00
 -1        32 8.73555E+00-6.77603E+00 9.83940E+00
 -1        33-3.36498E+00-2.75652E+00 3.94800E+00
 -1        34 8.94670E-01-5.20649E+00 8.58377E+00
 -1        35 7.13844E+00-1.39238E+01 4.84053E+00
 -1        36-3.88947E+00-5.45910E+00 2.06367E+00
 -1        37 9.75799E-02-1.04564E+01 4.21260E+00
 -1        38 1.04493E+01 0.00000E+00 5.21440E+00
 -1        39 4.78561E-01 0.00000E+00 1.97273E+00
 -1        40 4.24606E+00 0.00000E+00 4.11821E+00
 -1        41-2.10611E+00-4.47688E-01-4.17101E-02
 -1        42 1.62030E+01-7.83908E+00 4.45026E+00
 -1        43 3.17011E+00-5.22425E+00 4.23164E+00
 -1        44 9.50516E+00-7.00260E+00 5.00094E+00
 -1        45-5.44895E-01-2.76854E+00 2.02873E+00
 -3
    1PSTEP                        78          20           1          
  100CL  120 20.00000000          45                     0   20           1
 -4  STRESS      6    1
 -5  SXX         1    4    1    1
 -5  SYY         1    4    2    2
 -5  SZZ         1    4    3    3
 -5  SXY         1    4    1    2
 -5  SYZ         1    4    2    3
 -5  SZX         1    4    3    1
 -1         1-1.53797E+00-9.98248E-01-1.30888E+00 8.82570E-01 4.07207E-01-1.12458E+00
 -1         2-6.37527E-01-9.84288E-01-4.28268E+00 6.39016E-01 5.54663E-02-2.28849E-01
 -1         3-3.10183E-01-2.80047E+00-5.71903E-01-1.80870E-02 6.30840E-03-6.38862E-01
 -1         4 4.36366E+00-2.49737E+00-3.86676E+00-1.87300E-02 3.14917E-02 3.11059E-02
 -1         5-3.82999E+00-1.36283E+00-2.10762E+00-1.53805E+00 1.72103E-01 2.28435E+00
 -1         6 2.04706E-01-2.76042E+00-7.21867E+00-2.22039E+00 1.67557E-01 1.23454E+00
 -1         7-7.39808E-01-7.04064E+00-2.75971E+00-9.32950E-01-2.28011E-01 2.89820E+00
 -1         8 6.03913E+00-2.78948E+00-4.86306E+00 4.09705E-02 3.84253E-02 3.08168E-01
 -1         9-3.47188E+00 1.16026E+00 4.26640E+00 1.01802E+00-1.98549E-01-2.74508E-01
 -1        10 7.98057E+00 3.80909E+00 7.25103E+00 2.15340E-01-2.81576E-01-3.51021E-01
 -1        11-5.23974E+00 2.46467E+00 3.27312E+00 4.83971E-01-3.20894E-01-6.55521E-01
 -1        12-3.29946E+00 3.23094E+00 8.20796E-01 1.10126E-01 1.07788E-01-6.68168E-01
 -1        13 1.62805E-01-3.87411E+00-9.33629E+00-7.29615E-01 7.42703E-01 7.66286E-01
 -1        14-1.71938E+00 2.08784E-01 3.97089E+00-1.93266E+00-4.95268E-01-6.31413E-01
 -1        15-1.79697E+00-8.41764E-01 6.03878E-02 1.36552E+00-2.13451E-01-3.27738E-01
 -1        16 1.41205E+00-1.64724E+00-4.62795E+00 4.72286E-01 1.30709E-01 3.10888E-01
 -1        17 6.34935E+00 2.46170E+00 3.31375E+00-1.33792E-01-1.85033E-01-1.24890E+00
 -1        18 3.85057E+00-1.60620E-01 1.07564E+00 3.62940E-01-8.08268E-02 2.90533E-01
 -1        19-1.23546E+00-5.20332E+00-2.62921E+00-1.70677E+00-6.77566E-02 2.76601E+00
 -1        20-7.89765E+00 3.10495E+00 4.29940E+00-1.34742E-01 6.13397E-03 1.02789E-01
 -1        21-4.98510E+00 1.66493E-01 9.60983E-01 1.71421E+00-1.05832E-01-2.05854E+00
 -1        22-3.86640E-01-2.56936E+00-6.92526E-01 6.62992E-01 3.29457E-01-4.75308E-01
 -1        23-4.24786E+00 1.96604E+00 1.94268E+00 4.98851E-01-3.38294E-01 1.17440E+00
 -1        24-3.77431E+00-3.76318E-01 3.39659E-01 7.41122E-02-2.39246E-02-1.29481E+00
 -1        25-1.37733E-01-4.46215E-01-3.95404E+00 4.10203E-01 3.53215E-01-9.99266E-01
 -1        26-4.41387E-01-2.01517E+00-7.31864E+00-2.16722E+00-5.12916E-02 2.67795E+00
 -1        27 3.21196E+00-2.62665E+00-2.29786E+00-2.47741E-01 2.48246E-02-7.25733E-01
 -1        28 2.71517E+00-5.93538E+00-4.19837E+00-3.46444E-01-2.07429E-01 2.44719E+00
 -1        29 4.85482E+00 2.03285E+00 4.27091E+00-9.61268E-01-2.67234E-01-6.43741E-01
 -1        30 3.27003E+00 2.85720E+00 5.19005E+00 9.21723E-01-1.36150E-01-2.03344E-01
 -1        31 2.90784E+00 4.11550E-01 5.87874E-01 5.25048E-01-1.81622E-01 1.83369E-03
 -1        32-4.32819E+00 3.75972E-01 3.16998E+00-8.70862E-01-4.45392E-01 1.07018E+00
 -1        33-4.14793E+00-1.14039E+00 4.70174E-01 1.21167E+00-1.53634E-01-1.48163E+00
 -1        34-4.35179E+00 2.10044E+00 8.93024E-01-9.36141E-02-8.41380E-03-5.91345E-01
 -1        35-2.44601E+00 1.42242E+00 3.64140E-01-1.28273E+00-2.51262E-01 1.42118E+00
 -1        36-2.39080E+00-3.53945E-01-1.85773E+00 1.24138E+00 2.29646E-02-1.70281E+00
 -1        37-5.04293E+00 7.85012E-01 1.49363E+00 8.66190E-01-3.91090E-02 2.80040E-01
 -1        38 3.35288E+00 2.06871E+00 6.36451E-01 2.89228E-01-2.42636E-01 6.04652E-01
 -1        39 1.00169E+00-3.20306E-01-1.57484E+00 1.18637E-01 4.26604E-02-1.20747E+00
 -1        40 2.51269E+00 3.34480E+00 3.40691E+00 3.87529E-02 2.04941E-01-2.08322E-01
 -1        41 1.78966E+00-1.97502E+00-3.14624E+00 2.21995E-01 2.98475E-01-5.54603E-01
 -1        42 9.16943E-01-6.81017E+00-8.82710E+00-2.00107E+00 1.40191E-02 2.80785E+00
 -1        43 2.76258E+00 2.31643E+00 3.99378E+00 1.99798E-01-1.94191E-01 1.88185E-02
 -1        44 1.28928E+00 1.05984E+00 6.39136E-01-8.52207E-01-3.85679E-01 1.06634E+00
 -1        45-2.02302E-01-1.09396E+00-1.27698E+00 9.99824E-01-5.34956E-02-1.45992E+00
 -3
    1PSTEP                        79          20           1          
  100CL  120 20.00000000          45                     0   20           1
 -4  TOSTRAIN    6    1
 -5  EXX         1    4    1    1
 -5  EYY         1    4    2    2
 -5  EZZ         1    4    3    3
 -5  EXY         1    4    1    2
 -5  EYZ         1    4    2    3
 -5  EZX         1    4    3    1
 -1         1-1.95997E-03-1.74222E-03 7.16193E-04-1.97968E-05 1.89014E-04-2.27970E-04
 -1         2-9.84409E-04-9.65301E-04 5.10855E-04-3.08820E-04-4.54533E-05 1.42011E-04
 -1         3-1.23243E-03-1.47062E-03 1.04956E-03-2.33483E-04 1.82411E-05 3.23751E-04
 -1         4-3.86827E-04-1.56317E-03 4.91670E-04-1.70210E-04-5.11231E-05 3.01648E-04
 -1         5-2.98450E-02-2.68355E-02-1.08488E-02-2.68972E-03 3.62369E-04 4.49109E-03
 -1         6-2.91069E-02-3.15257E-02-2.04311E-02-3.47016E-03 9.36264E-05 2.46262E-03
 -1         7-2.86795E-02-3.25962E-02-1.38938E-02-1.80253E-03-6.46767E-04 5.34720E-03
 -1         8-2.73852E-02-3.31413E-02-2.09544E-02-3.23111E-04-2.84878E-05 1.12196E-03
 -1         9-2.23968E-02-2.11606E-02-1.63738E-02 1.65932E-03-1.64704E-04-4.53257E-04
 -1        10-1.94208E-02-2.14449E-02-1.63310E-02 3.62025E-04-2.09690E-04-4.69846E-04
 -1        11-2.54111E-02-2.17633E-02-1.87592E-02 8.19657E-04-2.79825E-04-1.04761E-03
 -1        12-2.36389E-02-2.06884E-02-1.87522E-02 2.12733E-04 1.64596E-04-1.25800E-03
 -1        13-2.78399E-02-3.09238E-02-2.03091E-02-1.36871E-03 1.07876E-03 1.77712E-03
 -1        14-3.00596E-02-2.92669E-02-1.88855E-02-2.20444E-03-7.11217E-04-1.03413E-03
 -1        15-1.06865E-02-1.07615E-02-7.77814E-03 5.75062E-04-4.97036E-05-3.74537E-04
 -1        16-9.90975E-04-1.55305E-03 4.70610E-04-7.36947E-05-1.41224E-04 4.42825E-04
 -1        17-2.60545E-02-2.79395E-02-1.99644E-02-2.04425E-04-1.78442E-04-1.56498E-03
 -1        18-9.70078E-03-1.11294E-02-7.53672E-03 1.70723E-04 2.80226E-05-1.20197E-05
 -1        19-2.76600E-02-2.97955E-02-1.11652E-02-3.00905E-03-2.98698E-04 5.28678E-03
 -1        20-3.40418E-02-2.63684E-02-1.75103E-02 4.00948E-04 3.01449E-04-1.76113E-04
 -1        21-1.16861E-02-1.08066E-02-7.51690E-03 1.02879E-03 7.88551E-05-1.56306E-03
 -1        22-1.72263E-03-1.81395E-03 9.26266E-04-1.51797E-04 1.60441E-04 2.24964E-04
 -1        23-3.15525E-02-2.69665E-02-1.89067E-02 8.96483E-04-5.90844E-04 1.57324E-03
 -1        24-1.16223E-02-1.08886E-02-7.55459E-03 1.48368E-04 4.80161E-05-1.00145E-03
 -1        25-1.50907E-03-1.48791E-03 2.63403E-04-3.24832E-04 1.73671E-04-4.52199E-06
 -1        26-2.63866E-02-2.71604E-02-1.54170E-02-3.76102E-03-2.02293E-04 5.13590E-03
 -1        27-5.94126E-04-1.47338E-03 5.41746E-04-3.31729E-04 2.02956E-05 2.04943E-04
 -1        28-2.70172E-02-3.28289E-02-1.66567E-02-9.20356E-04-4.98855E-04 4.64453E-03
 -1        29-2.70783E-02-2.83727E-02-1.89616E-02-1.31426E-03-2.64298E-04-7.86072E-04
 -1        30-2.03816E-02-2.10054E-02-1.64500E-02 1.54036E-03-8.73131E-05-2.63117E-04
 -1        31-9.83210E-03-1.07856E-02-7.85429E-03 1.18280E-04-6.19185E-05-2.95669E-05
 -1        32-3.14985E-02-2.82289E-02-1.83257E-02-6.46617E-04-6.66062E-04 1.23560E-03
 -1        33-1.16000E-02-1.09875E-02-7.42313E-03 7.63762E-04 2.29528E-05-1.08206E-03
 -1        34-2.40913E-02-2.09632E-02-1.85724E-02-1.16876E-04 2.40250E-05-1.16272E-03
 -1        35-2.98762E-02-2.77183E-02-2.07046E-02-1.19059E-03-4.00387E-04 1.50852E-03
 -1        36-1.09529E-02-1.06149E-02-8.36649E-03 6.55620E-04 1.00609E-04-1.25389E-03
 -1        37-2.30554E-02-2.10058E-02-1.73267E-02 1.51913E-03-5.91958E-05 3.22364E-04
 -1        38-2.67970E-02-2.78727E-02-2.09264E-02 3.40690E-04-4.25146E-04 6.08948E-04
 -1        39-1.06111E-02-1.09366E-02-8.24253E-03 1.82066E-04 1.13758E-04-9.97594E-04
 -1        40-2.09668E-02-2.07594E-02-1.70045E-02 7.70934E-05 2.28621E-04-3.05814E-04
 -1        41-1.39425E-03-1.77281E-03 3.84165E-04-3.17028E-04 8.09526E-05 1.07301E-04
 -1        42-2.46407E-02-3.06628E-02-1.63779E-02-3.58977E-03-2.69896E-04 5.38999E-03
 -1        43-2.10965E-02-2.14387E-02-1.72857E-02 4.34088E-04-2.17235E-04 1.19984E-04
 -1        44-2.79129E-02-2.79915E-02-2.06427E-02-6.44178E-04-5.80071E-04 1.02492E-03
 -1        45-1.07439E-02-1.10005E-02-8.05974E-03 6.59631E-04 5.79946E-05-1.21272E-03
 -3
    1PSTEP                        80          20           1          
  100CL  120 20.00000000          45                     0   20           1
 -4  ERROR       1    1
 -5  STR(%)      1    1    0    0
 -1         1 1.53934E+01
 -1         2 2.69563E+01
 -1         3 1.80021E+01
 -1         4 2.69563E+01
 -1         5 9.54049E+00
 -1         6 2.59575E+01
 -1         7 2.59575E+01
 -1         8 2.59575E+01
 -1         9 2.50145E+01
 -1        10 2.69563E+01
 -1        11 2.69563E+01
 -1        12 2.28508E+01
 -1        13 2.59575E+01
 -1        14 2.54860E+01
 -1        15 2.59854E+01
 -1        16 2.69563E+01
 -1        17 2.64569E+01
 -1        18 2.69563E+01
 -1        19 1.77490E+01
 -1        20 1.82484E+01
 -1        21 2.11749E+01
 -1        22 1.66978E+01
 -1        23 2.44042E+01
 -1        24 2.04265E+01
 -1        25 2.11749E+01
 -1        26 1.77490E+01
 -1        27 2.24792E+01
 -1        28 2.59575E+01
 -1        29 2.64569E+01
 -1        30 2.59854E+01
 -1        31 2.69563E+01
 -1        32 2.64569E+01
 -1        33 2.24792E+01
 -1        34 2.49036E+01
 -1        35 2.64569E+01
 -1        36 2.69563E+01
 -1        37 2.59854E+01
 -1        38 2.44042E+01
 -1        39 2.49036E+01
 -1        40 2.49036E+01
 -1        41 2.11749E+01
 -1        42 2.59575E+01
 -1        43 2.69563E+01
 -1        44 2.64569E+01
 -1        45 2.69563E+01
 -3
    1PSTEP                        81          21           1          
  100CL  121 21.00000000          45                     0   21           1
 -4  DISP        4    1
 -5  D1          1    2    1    0
 -5  D2          1    2    2    0
 -5  D3          1    2    3    0
 -5  ALL         1    2    0    0    1ALL
 -1         1-7.93092E+00-1.38182E+00 3.94239E-01
 -1         2-4.58722E+00-1.20276E+00 0.00000E+00
 -1         3-3.79673E+00 0.00000E+00 2.07423E-01
 -1         4 0.00000E+00 0.00000E+00 0.00000E+00
 -1         5 1.63671E+01-1.39333E+01 5.88740E+00
 -1         6 1.66812E+01-1.45641E+01 0.00000E+00
 -1         7 1.88465E+01 0.00000E+00 6.57741E+00
 -1         8 1.79852E+01 0.00000E+00 0.00000E+00
 -1         9 1.35127E+00-1.10636E+01 0.00000E+00
 -1        10 5.18994E+00 0.00000E+00 0.00000E+00
 -1        11-1.37954E+00-1.10579E+01 9.16246E+00
 -1        12 2.66218E+00 0.00000E+00 8.97791E+00
 -1        13 1.76265E+01-7.33773E+00 0.00000E+00
 -1        14 8.42303E+00-1.43229E+01 0.00000E+00
 -1        15-2.94651E+00-5.97721E+00 0.00000E+00
 -1        16-1.11268E+00-6.49201E-01 0.00000E+00
 -1        17 1.11643E+01 0.00000E+00 0.00000E+00
 -1        18 1.45066E+00 0.00000E+00 0.00000E+00
 -1        19 1.72859E+01-7.41894E+00 6.00246E+00
 -1        20 8.44769E+00-1.37250E+01 9.38782E+00
 -1        21-5.94807E+00-5.95185E+00 4.46294E+00
 -1        22-4.85641E+00-7.08841E-01 2.90120E-01
 -1        23 1.06039E+01 0.00000E+00 9.79941E+00
 -1        24-1.95890E+00 0.00000E+00 4.42670E+00
 -1        25-5.39625E+00-1.30617E+00 2.63513E-01
 -1        26 1.50859E+01-1.40450E+01 3.62369E+00
 -1        27-7.92815E-01 0.00000E+00 1.86653E-01
 -1        28 1.77432E+01 0.00000E+00 3.52851E+00
 -1        29 1.04985E+01-6.96178E+00 0.00000E+00
 -1        30 4.34964E+00-5.50494E+00 0.00000E+00
 -1        31 4.84193E-01-3.04701E+00 0.00000E+00
 -1        32 1.00453E+01-6.75593E+00 9.45041E+00
 -1        33-2.95413E+00-3.01455E+00 4.44618E+00
 -1        34 1.71012E+00-5.48116E+00 9.07211E+00
 -1        35 8.19730E+00-1.39476E+01 4.63475E+00
 -1        36-3.55203E+00-5.97907E+00 2.32197E+00
 -1        37 7.95031E-01-1.10103E+01 4.42944E+00
 -1        38 1.10680E+01 0.00000E+00 5.07593E+00
 -1        39 7.16642E-01 0.00000E+00 2.22873E+00
 -1        40 4.72049E+00 0.00000E+00 4.32106E+00
 -1        41-2.03670E+00-6.95499E-01 2.38355E-01
 -1        42 1.65412E+01-7.43561E+00 3.64723E+00
 -1        43 3.69491E+00-5.49674E+00 4.45767E+00
 -1        44 1.02037E+01-7.02758E+00 4.82617E+00
 -1        45-2.59079E-01-3.03329E+00 2.28482E+00
 -3
    1PSTEP                        82          21           1          
  100CL  121 21.00000000          45                     0   21           1
 -4  STRESS      6    1
 -5  SXX         1    4    1    1
 -5  SYY         1    4    2    2
 -5  SZZ         1    4    3    3
 -5  SXY         1    4    1    2
 -5  SYZ         1    4    2    3
 -5  SZX         1    4    3    1
 -1         1-1.77245E+00-1.19335E+00-1.52359E+00 1.04016E+00 4.62238E-01-1.29764E+00
 -1         2-7.67094E-01-1.17673E+00-4.88307E+00 7.76052E-01 7.05420E-02-2.72691E-01
 -1         3-4.03333E-01-3.32896E+00-6.74417E-01-5.40986E-03 5.43917E-03-7.75285E-01
 -1         4 5.01134E+00-2.89635E+00-4.42248E+00-1.25406E-02 4.15949E-02 2.33138E-02
 -1         5-4.23741E+00-1.51747E+00-2.32758E+00-1.70863E+00 1.87690E-01 2.52038E+00
 -1         6 1.96256E-01-3.11159E+00-8.08835E+00-2.47878E+00 1.95323E-01 1.36607E+00
 -1         7-7.85104E-01-7.90297E+00-3.05574E+00-1.03008E+00-2.41688E-01 3.20846E+00
 -1         8 6.75032E+00-3.21758E+00-5.49635E+00 5.98562E-02 4.49949E-02 3.23582E-01
 -1         9-4.03094E+00 1.34408E+00 4.83990E+00 1.09863E+00-2.24176E-01-2.94813E-01
 -1        10 9.06088E+00 4.37270E+00 8.21452E+00 2.33016E-01-3.25472E-01-3.88945E-01
 -1        11-5.92539E+00 2.81149E+00 3.68185E+00 5.13517E-01-3.66605E-01-7.01383E-01
 -1        12-3.69893E+00 3.72177E+00 9.45004E-01 1.16666E-01 1.19274E-01-7.08089E-01
 -1        13 1.87536E-01-4.35462E+00-1.04139E+01-8.08633E-01 8.29989E-01 8.39349E-01
 -1        14-2.01552E+00 1.81460E-01 4.35057E+00-2.19632E+00-5.50020E-01-6.88651E-01
 -1        15-2.10444E+00-9.44675E-01 1.50658E-01 1.58064E+00-2.50251E-01-3.51737E-01
 -1        16 1.57556E+00-1.93499E+00-5.35097E+00 5.59772E-01 1.68750E-01 3.34966E-01
 -1        17 7.12949E+00 2.70041E+00 3.65622E+00-1.48719E-01-2.09602E-01-1.39896E+00
 -1        18 4.41886E+00-1.02913E-01 1.27293E+00 4.13933E-01-9.85379E-02 3.52921E-01
 -1        19-1.31704E+00-5.80650E+00-2.90018E+00-1.89350E+00-6.74515E-02 3.05827E+00
 -1        20-8.88134E+00 3.43615E+00 4.74079E+00-1.88664E-01-5.61999E-03 1.40896E-01
 -1        21-5.67146E+00 2.86600E-01 1.17073E+00 1.94499E+00-1.34822E-01-2.30679E+00
 -1        22-4.76122E-01-3.05843E+00-8.51741E-01 7.92408E-01 3.74055E-01-5.77321E-01
 -1        23-4.75884E+00 2.15866E+00 2.14366E+00 5.46335E-01-3.72423E-01 1.33177E+00
 -1        24-4.28036E+00-3.65496E-01 4.24287E-01 7.31912E-02-3.16377E-02-1.45464E+00
 -1        25-2.20404E-01-6.04404E-01-4.57814E+00 5.14690E-01 4.00074E-01-1.17023E+00
 -1        26-4.71275E-01-2.23763E+00-8.11057E+00-2.40942E+00-5.24353E-02 2.95775E+00
 -1        27 3.64476E+00-3.12766E+00-2.62644E+00-2.66897E-01 2.71827E-02-8.66111E-01
 -1        28 3.05693E+00-6.67965E+00-4.68660E+00-3.73880E-01-2.24878E-01 2.70107E+00
 -1        29 5.44240E+00 2.24685E+00 4.70997E+00-1.08132E+00-3.00550E-01-7.17755E-01
 -1        30 3.68024E+00 3.28763E+00 5.89121E+00 9.96426E-01-1.55457E-01-2.24294E-01
 -1        31 3.34324E+00 5.15388E-01 7.49383E-01 6.10327E-01-2.10596E-01 1.05595E-02
 -1        32-4.85472E+00 3.65541E-01 3.49545E+00-1.00668E+00-4.94123E-01 1.22144E+00
 -1        33-4.72210E+00-1.25087E+00 5.60722E-01 1.37654E+00-1.84735E-01-1.67068E+00
 -1        34-4.88231E+00 2.42556E+00 1.02025E+00-1.11172E-01-1.04386E-02-6.21805E-01
 -1        35-2.78695E+00 1.55628E+00 3.36754E-01-1.47241E+00-2.75425E-01 1.61386E+00
 -1        36-2.74679E+00-3.79574E-01-2.04102E+00 1.42223E+00 1.95253E-02-1.92187E+00
 -1        37-5.77137E+00 9.16128E-01 1.70044E+00 9.26892E-01-4.14758E-02 3.20679E-01
 -1        38 3.72544E+00 2.26022E+00 6.38140E-01 3.23278E-01-2.67605E-01 6.93624E-01
 -1        39 1.20610E+00-2.82917E-01-1.73029E+00 1.22563E-01 4.04494E-02-1.35156E+00
 -1        40 2.86195E+00 3.85251E+00 3.86734E+00 4.13957E-02 2.29946E-01-2.20703E-01
 -1        41 2.04518E+00-2.35423E+00-3.64303E+00 2.88390E-01 3.45301E-01-6.58072E-01
 -1        42 1.05688E+00-7.58161E+00-9.77040E+00-2.21945E+00 2.80343E-02 3.10303E+00
 -1        43 3.13954E+00 2.66296E+00 4.52979E+00 2.05891E-01-2.21526E-01 2.52154E-02
 -1        44 1.43551E+00 1.12023E+00 6.48187E-01-9.81162E-01-4.26736E-01 1.21530E+00
 -1        45-1.98189E-01-1.19422E+00-1.40322E+00 1.13466E+00-6.80938E-02-1.63619E+00
 -3
    1PSTEP                        83          21           1          
  100CL  121 21.00000000          45                     0   21           1
 -4  TOSTRAIN    6    1
 -5  EXX         1    4    1    1
 -5  EYY         1    4    2    2
 -5  EZZ         1    4    3    3
 -5  EXY         1    4    1    2
 -5  EYZ         1    4    2    3
 -5  EZX         1    4    3    1
 -1         1-2.76549E-03-2.54996E-03-1.28253E-04 1.13831E-04 2.53604E-04-3.83084E-04
 -1         2-1.76834E-03-1.78663E-03-6.07003E-04-2.02197E-04-3.11545E-05 1.27889E-04
 -1         3-1.95395E-03-2.45372E-03 2.48757E-04-2.48953E-04 1.86751E-05 2.21647E-04
 -1         4-7.70428E-04-2.53539E-03-6.20480E-04-1.88367E-04-4.26108E-05 3.37237E-04
 -1         5-2.78061E-02-2.42483E-02-6.33471E-03-3.23399E-03 4.14133E-04 5.26617E-03
 -1         6-2.68958E-02-2.97838E-02-1.76858E-02-4.22937E-03 1.47432E-04 2.93245E-03
 -1         7-2.62645E-02-3.12574E-02-9.84640E-03-2.15608E-03-7.17114E-04 6.32703E-03
 -1         8-2.45975E-02-3.18390E-02-1.82705E-02-3.38444E-04-2.53780E-05 1.26000E-03
 -1         9-2.42062E-02-2.23420E-02-1.71104E-02 1.85694E-03-2.07377E-04-5.05848E-04
 -1        10-2.01742E-02-2.26793E-02-1.70950E-02 4.14788E-04-2.90082E-04-5.56749E-04
 -1        11-2.77525E-02-2.31133E-02-2.00731E-02 8.81309E-04-3.63245E-04-1.14406E-03
 -1        12-2.55087E-02-2.17332E-02-2.00998E-02 2.33455E-04 1.92257E-04-1.37345E-03
 -1        13-2.52884E-02-2.91280E-02-1.75333E-02-1.65585E-03 1.30027E-03 2.07364E-03
 -1        14-3.05984E-02-2.95519E-02-1.79316E-02-2.81545E-03-8.51519E-04-1.16687E-03
 -1        15-1.19006E-02-1.18281E-02-8.68056E-03 8.61104E-04-9.71217E-05-4.07279E-04
 -1        16-1.60053E-03-2.40542E-03-6.60549E-04-7.60944E-06-1.04814E-04 5.08571E-04
 -1        17-2.55391E-02-2.80254E-02-1.92211E-02-2.41585E-04-2.27491E-04-1.89978E-03
 -1        18-1.04005E-02-1.21917E-02-8.44410E-03 2.34028E-04 6.66663E-06 7.40930E-05
 -1        19-2.50961E-02-2.78664E-02-6.70078E-03-3.60989E-03-3.15776E-04 6.23449E-03
 -1        20-3.54222E-02-2.60671E-02-1.62922E-02 3.16181E-04 2.97168E-04-1.08855E-04
 -1        21-1.31290E-02-1.17488E-02-8.36793E-03 1.33522E-03 4.32762E-05-1.91054E-03
 -1        22-2.44256E-03-2.76357E-03 1.24752E-04-5.06465E-05 2.13499E-04 1.53840E-04
 -1        23-3.23037E-02-2.68323E-02-1.79345E-02 1.02048E-03-6.94136E-04 1.97871E-03
 -1        24-1.29436E-02-1.18669E-02-8.46000E-03 1.47121E-04 4.28160E-05-1.22586E-03
 -1        25-2.20986E-03-2.25133E-03-7.88426E-04-2.53564E-04 2.29378E-04-1.49380E-04
 -1        26-2.36910E-02-2.46280E-02-1.17747E-02-4.52848E-03-2.17967E-04 6.05050E-03
 -1        27-1.04607E-03-2.46452E-03-4.14776E-04-3.81502E-04 2.42868E-05 9.48119E-05
 -1        28-2.42402E-02-3.14914E-02-1.31546E-02-1.07247E-03-5.72306E-04 5.45465E-03
 -1        29-2.68397E-02-2.84806E-02-1.80446E-02-1.63247E-03-3.33172E-04-9.32614E-04
 -1        30-2.14977E-02-2.21270E-02-1.72233E-02 1.74046E-03-1.17219E-04-3.08866E-04
 -1        31-1.05772E-02-1.18049E-02-8.79352E-03 2.10104E-04-1.02831E-04-6.02764E-06
 -1        32-3.22508E-02-2.83980E-02-1.72444E-02-9.33250E-04-7.88867E-04 1.60258E-03
 -1        33-1.29613E-02-1.20350E-02-8.31360E-03 9.99880E-04-1.38778E-05-1.34811E-03
 -1        34-2.60557E-02-2.21156E-02-1.98791E-02-1.71746E-04 2.37687E-05-1.25390E-03
 -1        35-3.03722E-02-2.76832E-02-2.01519E-02-1.62001E-03-4.61778E-04 1.93235E-03
 -1        36-1.21729E-02-1.16104E-02-9.45259E-03 8.98565E-04 1.00862E-04-1.57836E-03
 -1        37-2.49647E-02-2.21616E-02-1.83248E-02 1.67726E-03-6.21761E-05 4.14214E-04
 -1        38-2.65377E-02-2.79189E-02-2.04140E-02 4.08969E-04-4.95658E-04 8.00722E-04
 -1        39-1.15442E-02-1.19418E-02-9.35495E-03 1.86142E-04 1.16029E-04-1.21055E-03
 -1        40-2.21417E-02-2.17956E-02-1.79557E-02 8.64402E-05 2.77065E-04-3.22124E-04
 -1        41-1.94293E-03-2.67205E-03-6.13287E-04-2.82084E-04 1.33332E-04 3.19485E-05
 -1        42-2.15417E-02-2.88828E-02-1.28851E-02-4.30577E-03-2.57337E-04 6.36645E-03
 -1        43-2.23278E-02-2.27022E-02-1.82857E-02 4.59432E-04-2.73779E-04 1.61798E-04
 -1        44-2.78646E-02-2.81019E-02-2.00705E-02-8.95961E-04-6.80494E-04 1.32928E-03
 -1        45-1.17871E-02-1.20729E-02-9.11693E-03 8.58629E-04 4.24197E-05-1.48215E-03
 -3
    1PSTEP                        84          21           1          
  100CL  121 21.00000000          45                     0   21           1
 -4  ERROR       1    1
 -5  STR(%)      1    1    0    0
 -1         1 1.46938E+01
 -1         2 2.69110E+01
 -1         3 1.80965E+01
 -1         4 2.69110E+01
 -1         5 9.49841E+00
 -1         6 2.56727E+01
 -1         7 2.56727E+01
 -1         8 2.56727E+01
 -1         9 2.48624E+01
 -1        10 2.69110E+01
 -1        11 2.69110E+01
 -1        12 2.25288E+01
 -1        13 2.56727E+01
 -1        14 2.52676E+01
 -1        15 2.58867E+01
 -1        16 2.69110E+01
 -1        17 2.62919E+01
 -1        18 2.69110E+01
 -1        19 1.75856E+01
 -1        20 1.82047E+01
 -1        21 2.08024E+01
 -1        22 1.63951E+01
 -1        23 2.41008E+01
 -1        24 2.03127E+01
 -1        25 2.08024E+01
 -1        26 1.75856E+01
 -1        27 2.25038E+01
 -1        28 2.56727E+01
 -1        29 2.62919E+01
 -1        30 2.58867E+01
 -1        31 2.69110E+01
 -1        32 2.62919E+01
 -1        33 2.25038E+01
 -1        34 2.47199E+01
 -1        35 2.62919E+01
 -1        36 2.69110E+01
 -1        37 2.58867E+01
 -1        38 2.41008E+01
 -1        39 2.47199E+01
 -1        40 2.47199E+01
 -1        41 2.08024E+01
 -1        42 2.56727E+01
 -1        43 2.69110E+01
 -1        44 2.62919E+01
 -1        45 2.69110E+01
 -3
    1PSTEP                        85          22           1          
  100CL  122 22.00000000          45                     0   22           1
 -4  DISP        4    1
 -5  D1          1    2    1    0
 -5  D2          1    2    2    0
 -5  D3          1    2    3    0
 -5  ALL         1    2    0    0    1ALL
 -1         1-7.61696E+00-1.86316E+00 9.28846E-01
 -1         2-4.57794E+00-1.63134E+00 0.00000E+00
 -1         3-3.66328E+00 0.00000E+00 6.90313E-01
 -1         4 0.00000E+00 0.00000E+00 0.00000E+00
 -1         5 1.80367E+01-1.27536E+01 3.78424E+00
 -1         6 1.74691E+01-1.34549E+01 0.00000E+00
 -1         7 1.99291E+01 0.00000E+00 4.54822E+00
 -1         8 1.79146E+01 0.00000E+00 0.00000E+00
 -1         9 1.96158E+00-1.15870E+01 0.00000E+00
 -1        10 5.51168E+00 0.00000E+00 0.00000E+00
 -1        11-3.41752E-01-1.15982E+01 9.61545E+00
 -1        12 3.45326E+00 0.00000E+00 9.40593E+00
 -1        13 1.77784E+01-6.80279E+00 0.00000E+00
 -1        14 9.33155E+00-1.42960E+01 0.00000E+00
 -1        15-2.68155E+00-6.49338E+00 0.00000E+00
 -1        16-1.09349E+00-8.76532E-01 0.00000E+00
 -1        17 1.15121E+01 0.00000E+00 0.00000E+00
 -1        18 1.60818E+00 0.00000E+00 0.00000E+00
 -1        19 1.83324E+01-6.91798E+00 3.91093E+00
 -1        20 1.02694E+01-1.35996E+01 8.84142E+00
 -1        21-5.35288E+00-6.43294E+00 4.92451E+00
 -1        22-4.66007E+00-9.63898E-01 7.96539E-01
 -1        23 1.18232E+01 0.00000E+00 9.32227E+00
 -1        24-1.55970E+00 0.00000E+00 4.91069E+00
 -1        25-5.27432E+00-1.76128E+00 5.53302E-01
 -1        26 1.58276E+01-1.28761E+01 2.68948E+00
 -1        27-7.16959E-01 0.00000E+00 4.49201E-01
 -1        28 1.78923E+01 0.00000E+00 2.56293E+00
 -1        29 1.09823E+01-6.92273E+00 0.00000E+00
 -1        30 4.75659E+00-5.75850E+00 0.00000E+00
 -1        31 6.99913E-01-3.31077E+00 0.00000E+00
 -1        32 1.13866E+01-6.67883E+00 8.91720E+00
 -1        33-2.49970E+00-3.26527E+00 4.92605E+00
 -1        34 2.56830E+00-5.73672E+00 9.51377E+00
 -1        35 9.26885E+00-1.38617E+01 4.35618E+00
 -1        36-3.17702E+00-6.48512E+00 2.57155E+00
 -1        37 1.52600E+00-1.15264E+01 4.62057E+00
 -1        38 1.16380E+01 0.00000E+00 4.86951E+00
 -1        39 9.58441E-01 0.00000E+00 2.47629E+00
 -1        40 5.18376E+00 0.00000E+00 4.49735E+00
 -1        41-1.94827E+00-9.47648E-01 5.24376E-01
 -1        42 1.67515E+01-6.93075E+00 2.71136E+00
 -1        43 4.21936E+00-5.74979E+00 4.65886E+00
 -1        44 1.08665E+01-6.99884E+00 4.58091E+00
 -1        45 4.07941E-02-3.29134E+00 2.53218E+00
 -3
    1PSTEP                        86          22           1          
  100CL  122 22.00000000          45                     0   22           1
 -4  STRESS      6    1
 -5  SXX         1    4    1    1
 -5  SYY         1    4    2    2
 -5  SZZ         1    4    3    3
 -5  SXY         1    4    1    2
 -5  SYZ         1    4    2    3
 -5  SZX         1    4    3    1
 -1         1-2.01397E+00-1.39499E+00-1.74559E+00 1.20271E+00 5.18676E-01-1.47621E+00
 -1         2-9.00910E-01-1.37629E+00-5.50216E+00 9.18100E-01 8.63368E-02-3.18027E-01
 -1         3-5.01099E-01-3.87496E+00-7.80639E-01 7.92608E-03 4.62420E-03-9.16888E-01
 -1         4 5.67860E+00-3.30782E+00-4.99584E+00-6.05375E-03 5.21375E-02 1.47484E-02
 -1         5-4.65075E+00-1.67447E+00-2.55140E+00-1.88142E+00 2.03112E-01 2.76013E+00
 -1         6 1.87443E-01-3.47208E+00-8.98057E+00-2.74144E+00 2.24713E-01 1.49874E+00
 -1         7-8.30847E-01-8.78259E+00-3.35684E+00-1.12717E+00-2.54642E-01 3.52384E+00
 -1         8 7.47446E+00-3.66200E+00-6.15151E+00 8.00873E-02 5.19684E-02 3.38782E-01
 -1         9-4.60687E+00 1.53480E+00 5.43378E+00 1.17959E+00-2.50639E-01-3.15036E-01
 -1        10 1.01712E+01 4.95491E+00 9.20832E+00 2.50508E-01-3.70784E-01-4.27894E-01
 -1        11-6.62828E+00 3.16658E+00 4.10054E+00 5.41948E-01-4.13703E-01-7.46511E-01
 -1        12-4.10953E+00 4.22862E+00 1.07444E+00 1.23226E-01 1.30987E-01-7.47086E-01
 -1        13 2.11488E-01-4.84632E+00-1.15175E+01-8.87979E-01 9.19587E-01 9.12903E-01
 -1        14-2.32165E+00 1.50295E-01 4.73376E+00-2.46764E+00-6.05096E-01-7.46642E-01
 -1        15-2.42182E+00-1.05035E+00 2.46244E-01 1.80274E+00-2.88228E-01-3.75888E-01
 -1        16 1.74325E+00-2.23215E+00-6.09774E+00 6.50063E-01 2.08373E-01 3.59137E-01
 -1        17 7.92694E+00 2.94049E+00 4.00301E+00-1.64190E-01-2.34803E-01-1.55246E+00
 -1        18 5.00385E+00-4.14621E-02 1.47771E+00 4.66339E-01-1.16905E-01 4.17415E-01
 -1        19-1.39799E+00-6.41839E+00-3.17537E+00-2.08208E+00-6.69170E-02 3.35507E+00
 -1        20-9.88699E+00 3.77079E+00 5.18802E+00-2.45746E-01-1.77872E-02 1.81734E-01
 -1        21-6.37687E+00 4.11800E-01 1.38824E+00 2.18185E+00-1.65041E-01-2.56153E+00
 -1        22-5.69402E-01-3.56329E+00-1.01702E+00 9.26064E-01 4.19946E-01-6.83223E-01
 -1        23-5.28190E+00 2.35213E+00 2.34859E+00 5.94607E-01-4.06515E-01 1.49393E+00
 -1        24-4.80189E+00-3.52683E-01 5.12249E-01 7.20980E-02-3.95977E-02-1.61883E+00
 -1        25-3.06585E-01-7.68996E-01-5.22227E+00 6.23085E-01 4.48138E-01-1.34666E+00
 -1        26-4.98846E-01-2.46308E+00-8.91508E+00-2.65472E+00-5.35487E-02 3.24112E+00
 -1        27 4.08960E+00-3.64541E+00-2.96524E+00-2.86264E-01 2.96582E-02-1.01162E+00
 -1        28 3.40548E+00-7.44139E+00-5.18592E+00-4.00411E-01-2.41941E-01 2.95917E+00
 -1        29 6.04427E+00 2.46365E+00 5.15508E+00-1.20436E+00-3.34056E-01-7.93598E-01
 -1        30 4.10171E+00 3.73243E+00 6.61597E+00 1.07148E+00-1.75510E-01-2.45716E-01
 -1        31 3.79209E+00 6.23357E-01 9.17894E-01 6.98192E-01-2.40533E-01 1.95154E-02
 -1        32-5.39325E+00 3.52250E-01 3.82502E+00-1.14672E+00-5.43468E-01 1.37741E+00
 -1        33-5.31332E+00-1.36347E+00 6.54541E-01 1.54565E+00-2.16951E-01-1.86501E+00
 -1        34-5.42694E+00 2.76169E+00 1.15212E+00-1.29834E-01-1.25949E-02-6.51241E-01
 -1        35-3.13548E+00 1.68982E+00 3.04998E-01-1.66772E+00-2.99668E-01 1.81235E+00
 -1        36-3.11290E+00-4.05733E-01-2.22832E+00 1.60825E+00 1.58670E-02-2.14675E+00
 -1        37-6.51987E+00 1.05231E+00 1.91607E+00 9.87457E-01-4.40809E-02 3.63449E-01
 -1        38 4.10394E+00 2.45180E+00 6.34714E-01 3.58122E-01-2.92982E-01 7.86130E-01
 -1        39 1.41729E+00-2.42635E-01-1.88947E+00 1.26470E-01 3.80377E-02-1.49940E+00
 -1        40 3.22061E+00 4.37764E+00 4.34320E+00 4.40381E-02 2.55680E-01-2.32606E-01
 -1        41 2.30819E+00-2.74580E+00-4.15586E+00 3.57203E-01 3.93523E-01-7.65294E-01
 -1        42 1.20133E+00-8.36347E+00-1.07280E+01-2.43974E+00 4.28685E-02 3.40171E+00
 -1        43 3.52766E+00 3.02103E+00 5.08340E+00 2.11023E-01-2.49784E-01 3.23035E-02
 -1        44 1.58395E+00 1.17735E+00 6.52420E-01-1.11450E+00-4.68688E-01 1.36938E+00
 -1        45-1.93116E-01-1.29627E+00-1.53223E+00 1.27289E+00-8.32639E-02-1.81715E+00
 -3
    1PSTEP                        87          22           1          
  100CL  122 22.00000000          45                     0   22           1
 -4  TOSTRAIN    6    1
 -5  EXX         1    4    1    1
 -5  EYY         1    4    2    2
 -5  EZZ         1    4    3    3
 -5  EXY         1    4    1    2
 -5  EYZ         1    4    2    3
 -5  EZX         1    4    3    1
 -1         1-3.56930E-03-3.35698E-03-9.71610E-04 2.61144E-04 3.23540E-04-5.52913E-04
 -1         2-2.55293E-03-2.61270E-03-1.75046E-03-8.29512E-05-1.50098E-05 1.11452E-04
 -1         3-2.66930E-03-3.45518E-03-5.48191E-04-2.64572E-04 1.91504E-05 1.07310E-04
 -1         4-1.11779E-03-3.52440E-03-1.75756E-03-2.07356E-04-3.29514E-05 3.74353E-04
 -1         5-2.53302E-02-2.11776E-02-1.18945E-03-3.82104E-03 4.68694E-04 6.10004E-03
 -1         6-2.42255E-02-2.76204E-02-1.44446E-02-5.04848E-03 2.07455E-04 3.43860E-03
 -1         7-2.33757E-02-2.95354E-02-5.19977E-03-2.53616E-03-7.90340E-04 7.38173E-03
 -1         8-2.13011E-02-3.01531E-02-1.50935E-02-3.54210E-04-2.17174E-05 1.40846E-03
 -1         9-2.60014E-02-2.34537E-02-1.77335E-02 2.06504E-03-2.53510E-04-5.61013E-04
 -1        10-2.08264E-02-2.38476E-02-1.77488E-02 4.70637E-04-3.77481E-04-6.49916E-04
 -1        11-3.01167E-02-2.44078E-02-2.13203E-02 9.44388E-04-4.53538E-04-1.24456E-03
 -1        12-2.73653E-02-2.26971E-02-2.13833E-02 2.55174E-04 2.21845E-04-1.49343E-03
 -1        13-2.22499E-02-2.69096E-02-1.42589E-02-1.96563E-03 1.53921E-03 2.39296E-03
 -1        14-3.09528E-02-2.96329E-02-1.66759E-02-3.47720E-03-1.00099E-03-1.30679E-03
 -1        15-1.31051E-02-1.28703E-02-9.53744E-03 1.17274E-03-1.48899E-04-4.41220E-04
 -1        16-2.19326E-03-3.26257E-03-1.81843E-03 6.55779E-05-6.39317E-05 5.78173E-04
 -1        17-2.47560E-02-2.78949E-02-1.81917E-02-2.81726E-04-2.80370E-04-2.25924E-03
 -1        18-1.10453E-02-1.32271E-02-9.30787E-03 3.02669E-04-1.69635E-05 1.68661E-04
 -1        19-2.20510E-02-2.55070E-02-1.60870E-03-4.25679E-03-3.33119E-04 7.25471E-03
 -1        20-3.66832E-02-2.55182E-02-1.47514E-02 2.19532E-04 2.91268E-04-3.21591E-05
 -1        21-1.45795E-02-1.26541E-02-9.16988E-03 1.66644E-03 3.75403E-06-2.28435E-03
 -1        22-3.15361E-03-3.72622E-03-6.72416E-04 6.15970E-05 2.71034E-04 7.40639E-05
 -1        23-3.28856E-02-2.64655E-02-1.66556E-02 1.15202E-03-8.03974E-04 2.41854E-03
 -1        24-1.42615E-02-1.28114E-02-9.32133E-03 1.45076E-04 3.68857E-05-1.46743E-03
 -1        25-2.90080E-03-3.01100E-03-1.85763E-03-1.73125E-04 2.89666E-04-3.08879E-04
 -1        26-2.05058E-02-2.16164E-02-7.56836E-03-5.35603E-03-2.34457E-04 7.03371E-03
 -1        27-1.46790E-03-3.47483E-03-1.38055E-03-4.34322E-04 2.86247E-05-2.77669E-05
 -1        28-2.09594E-02-2.97690E-02-9.09627E-03-1.23555E-03-6.49997E-04 6.32548E-03
 -1        29-2.63561E-02-2.83711E-02-1.68291E-02-1.97645E-03-4.06382E-04-1.08905E-03
 -1        30-2.25422E-02-2.31737E-02-1.78867E-02 1.95198E-03-1.49786E-04-3.57715E-04
 -1        31-1.12711E-02-1.27949E-02-9.69063E-03 3.10478E-04-1.47458E-04 1.98365E-05
 -1        32-3.28326E-02-2.83588E-02-1.58500E-02-1.24535E-03-9.19828E-04 2.00156E-03
 -1        33-1.43230E-02-1.30552E-02-9.15926E-03 1.25504E-03-5.44610E-05-1.63496E-03
 -1        34-2.80136E-02-2.31962E-02-2.11189E-02-2.31731E-04 2.34050E-05-1.34790E-03
 -1        35-3.06789E-02-2.74206E-02-1.93291E-02-2.08713E-03-5.26559E-04 2.39146E-03
 -1        36-1.33821E-02-1.25753E-02-1.05087E-02 1.16209E-03 1.00661E-04-1.92825E-03
 -1        37-2.68657E-02-2.32463E-02-1.92307E-02 1.84293E-03-6.53468E-05 5.14074E-04
 -1        38-2.60307E-02-2.77455E-02-1.96332E-02 4.81973E-04-5.71029E-04 1.00983E-03
 -1        39-1.24402E-02-1.29157E-02-1.04406E-02 1.89795E-04 1.17934E-04-1.43947E-03
 -1        40-2.32488E-02-2.27494E-02-1.88117E-02 9.62947E-05 3.29189E-04-3.38107E-04
 -1        41-2.46701E-03-3.57956E-03-1.62335E-03-2.41826E-04 1.90474E-04-5.19361E-05
 -1        42-1.79194E-02-2.66836E-02-8.83880E-03-5.07651E-03-2.41744E-04 7.41655E-03
 -1        43-2.34955E-02-2.39029E-02-1.91941E-02 4.84685E-04-3.35018E-04 2.07420E-04
 -1        44-2.75831E-02-2.79986E-02-1.92260E-02-1.16978E-03-7.87968E-04 1.65958E-03
 -1        45-1.28032E-02-1.31203E-02-1.01428E-02 1.07355E-03 2.50181E-05-1.77197E-03
 -3
    1PSTEP                        88          22           1          
  100CL  122 22.00000000          45                     0   22           1
 -4  ERROR       1    1
 -5  STR(%)      1    1    0    0
 -1         1 1.41145E+01
 -1         2 2.68717E+01
 -1         3 1.81732E+01
 -1         4 2.68717E+01
 -1         5 9.46047E+00
 -1         6 2.54278E+01
 -1         7 2.54278E+01
 -1         8 2.54278E+01
 -1         9 2.47354E+01
 -1        10 2.68717E+01
 -1        11 2.68717E+01
 -1        12 2.22437E+01
 -1        13 2.54278E+01
 -1        14 2.50816E+01
 -1        15 2.58035E+01
 -1        16 2.68717E+01
 -1        17 2.61498E+01
 -1        18 2.68717E+01
 -1        19 1.74442E+01
 -1        20 1.81661E+01
 -1        21 2.04931E+01
 -1        22 1.61439E+01
 -1        23 2.38358E+01
 -1        24 2.02085E+01
 -1        25 2.04931E+01
 -1        26 1.74442E+01
 -1        27 2.25225E+01
 -1        28 2.54278E+01
 -1        29 2.61498E+01
 -1        30 2.58035E+01
 -1        31 2.68717E+01
 -1        32 2.61498E+01
 -1        33 2.25225E+01
 -1        34 2.45577E+01
 -1        35 2.61498E+01
 -1        36 2.68717E+01
 -1        37 2.58035E+01
 -1        38 2.38358E+01
 -1        39 2.45577E+01
 -1        40 2.45577E+01
 -1        41 2.04931E+01
 -1        42 2.54278E+01
 -1        43 2.68717E+01
 -1        44 2.61498E+01
 -1        45 2.68717E+01
 -3
    1PSTEP                        89          23           1          
  100CL  123 23.00000000          45                     0   23           1
 -4  DISP        4    1
 -5  D1          1    2    1    0
 -5  D2          1    2    2    0
 -5  D3          1    2    3    0
 -5  ALL         1    2    0    0    1ALL
 -1         1-7.23199E+00-2.35094E+00 1.47209E+00
 -1         2-4.54492E+00-2.06228E+00 0.00000E+00
 -1         3-3.49638E+00 0.00000E+00 1.17780E+00
 -1         4 0.00000E+00 0.00000E+00 0.00000E+00
 -1         5 1.97207E+01-1.13585E+01 1.39809E+00
 -1         6 1.81828E+01-1.21342E+01 0.00000E+00
 -1         7 2.09582E+01 0.00000E+00 2.23987E+00
 -1         8 1.76820E+01 0.00000E+00 0.00000E+00
 -1         9 2.59070E+00-1.20727E+01 0.00000E+00
 -1        10 5.80605E+00 0.00000E+00 0.00000E+00
 -1        11 7.70662E-01-1.21024E+01 1.00221E+01
 -1        12 4.27598E+00 0.00000E+00 9.78614E+00
 -1        13 1.77911E+01-6.16381E+00 0.00000E+00
 -1        14 1.02356E+01-1.41625E+01 0.00000E+00
 -1        15-2.39297E+00-6.99648E+00 0.00000E+00
 -1        16-1.06697E+00-1.10605E+00 0.00000E+00
 -1        17 1.17892E+01 0.00000E+00 0.00000E+00
 -1        18 1.75727E+00 0.00000E+00 0.00000E+00
 -1        19 1.93292E+01-6.31604E+00 1.53705E+00
 -1        20 1.21754E+01-1.33619E+01 8.14960E+00
 -1        21-4.68599E+00-6.89786E+00 5.36587E+00
 -1        22-4.41907E+00-1.22346E+00 1.30943E+00
 -1        23 1.30595E+01 0.00000E+00 8.70378E+00
 -1        24-1.12702E+00 0.00000E+00 5.37675E+00
 -1        25-5.11352E+00-2.22076E+00 8.49243E-01
 -1        26 1.64984E+01-1.14924E+01 1.62230E+00
 -1        27-6.29399E-01 0.00000E+00 7.15674E-01
 -1        28 1.79015E+01 0.00000E+00 1.46166E+00
 -1        29 1.14114E+01-6.82891E+00 0.00000E+00
 -1        30 5.14826E+00-5.99260E+00 0.00000E+00
 -1        31 9.17476E-01-3.56823E+00 0.00000E+00
 -1        32 1.27592E+01-6.54472E+00 8.23936E+00
 -1        33-2.00169E+00-3.50863E+00 5.38752E+00
 -1        34 3.46912E+00-5.97307E+00 9.90846E+00
 -1        35 1.03527E+01-1.36660E+01 4.00462E+00
 -1        36-2.76448E+00-6.97717E+00 2.81233E+00
 -1        37 2.29034E+00-1.20044E+01 4.78587E+00
 -1        38 1.21592E+01 0.00000E+00 4.59496E+00
 -1        39 1.20397E+00 0.00000E+00 2.71534E+00
 -1        40 5.63589E+00 0.00000E+00 4.64694E+00
 -1        41-1.84081E+00-1.20410E+00 8.16328E-01
 -1        42 1.68334E+01-6.32445E+00 1.64227E+00
 -1        43 4.74342E+00-5.98327E+00 4.83508E+00
 -1        44 1.14932E+01-6.91631E+00 4.26498E+00
 -1        45 3.54701E-01-3.54265E+00 2.77072E+00
 -3
    1PSTEP                        90          23           1          
  100CL  123 23.00000000          45                     0   23           1
 -4  STRESS      6    1
 -5  SXX         1    4    1    1
 -5  SYY         1    4    2    2
 -5  SZZ         1    4    3    3
 -5  SXY         1    4    1    2
 -5  SYZ         1    4    2    3
 -5  SZX         1    4    3    1
 -1         1-2.26203E+00-1.60279E+00-1.97453E+00 1.36989E+00 5.76372E-01-1.65995E+00
 -1         2-1.03870E+00-1.58259E+00-6.13863E+00 1.06494E+00 1.02828E-01-3.64811E-01
 -1         3-6.03544E-01-4.43728E+00-8.90429E-01 2.19487E-02 3.86495E-03-1.06353E+00
 -1         4 6.36403E+00-3.73079E+00-5.58565E+00 7.61052E-04 6.31070E-02 5.35695E-03
 -1         5-5.06817E+00-1.83313E+00-2.77820E+00-2.05557E+00 2.18246E-01 3.00258E+00
 -1         6 1.78297E-01-3.84092E+00-9.89290E+00-3.00729E+00 2.55794E-01 1.63181E+00
 -1         7-8.76868E-01-9.67621E+00-3.66180E+00-1.22354E+00-2.66685E-01 3.84305E+00
 -1         8 8.20865E+00-4.12230E+00-6.82774E+00 1.01726E-01 5.93722E-02 3.53656E-01
 -1         9-5.19825E+00 1.73216E+00 6.04721E+00 1.26049E+00-2.77878E-01-3.35037E-01
 -1        10 1.13087E+01 5.55458E+00 1.02305E+01 2.67667E-01-4.17408E-01-4.67786E-01
 -1        11-7.34633E+00 3.52876E+00 4.52794E+00 5.68888E-01-4.62086E-01-7.90461E-01
 -1        12-4.53030E+00 4.75046E+00 1.20909E+00 1.29767E-01 1.42890E-01-7.84779E-01
 -1        13 2.34177E-01-5.34770E+00-1.26441E+01-9.67162E-01 1.01129E+00 9.86490E-01
 -1        14-2.63715E+00 1.14983E-01 5.11855E+00-2.74601E+00-6.60156E-01-8.05142E-01
 -1        15-2.74838E+00-1.15847E+00 3.47339E-01 2.03136E+00-3.27308E-01-4.00091E-01
 -1        16 1.91474E+00-2.53808E+00-6.86681E+00 7.43005E-01 2.49519E-01 3.83275E-01
 -1        17 8.73904E+00 3.18058E+00 4.35245E+00-1.80201E-01-2.60550E-01-1.70895E+00
 -1        18 5.60417E+00 2.38590E-02 1.68980E+00 5.20033E-01-1.35892E-01 4.83871E-01
 -1        19-1.47772E+00-7.03613E+00-3.45364E+00-2.27152E+00-6.61486E-02 3.65512E+00
 -1        20-1.09112E+01 4.10717E+00 5.63903E+00-3.06081E-01-3.02804E-02 2.25476E-01
 -1        21-7.09960E+00 5.41954E-01 1.61323E+00 2.42414E+00-1.96461E-01-2.82211E+00
 -1        22-6.66439E-01-4.08290E+00-1.18818E+00 1.06371E+00 4.67026E-01-7.92903E-01
 -1        23-5.81550E+00 2.54533E+00 2.55689E+00 6.43475E-01-4.40302E-01 1.66057E+00
 -1        24-5.33792E+00-3.37700E-01 6.03431E-01 7.08381E-02-4.77895E-02-1.78698E+00
 -1        25-3.96192E-01-9.39758E-01-5.88524E+00 7.35223E-01 4.97283E-01-1.52823E+00
 -1        26-5.23510E-01-2.69048E+00-9.72871E+00-2.90191E+00-5.46440E-02 3.52672E+00
 -1        27 4.54539E+00-4.17879E+00-3.31359E+00-3.05737E-01 3.22455E-02-1.16208E+00
 -1        28 3.75948E+00-8.21823E+00-5.69477E+00-4.25715E-01-2.58436E-01 3.22046E+00
 -1        29 6.65867E+00 2.68231E+00 5.60423E+00-1.33008E+00-3.67521E-01-8.71062E-01
 -1        30 4.53332E+00 4.19073E+00 7.36312E+00 1.14649E+00-1.96280E-01-2.67549E-01
 -1        31 4.25334E+00 7.35338E-01 1.09333E+00 7.88424E-01-2.71381E-01 2.86376E-02
 -1        32-5.94200E+00 3.35843E-01 4.15711E+00-1.29068E+00-5.93182E-01 1.53777E+00
 -1        33-5.92032E+00-1.47775E+00 7.51508E-01 1.71850E+00-2.50237E-01-2.06413E+00
 -1        34-5.98430E+00 3.10820E+00 1.28847E+00-1.49684E-01-1.48876E-02-6.79327E-01
 -1        35-3.49033E+00 1.82210E+00 2.68478E-01-1.86820E+00-3.23841E-01 2.01623E+00
 -1        36-3.48819E+00-4.32331E-01-2.41900E+00 1.79893E+00 1.19755E-02-2.37682E+00
 -1        37-7.28640E+00 1.19336E+00 2.14046E+00 1.04754E+00-4.69486E-02 4.08457E-01
 -1        38 4.48689E+00 2.64223E+00 6.25453E-01 3.93661E-01-3.18667E-01 8.82135E-01
 -1        39 1.63480E+00-1.99328E-01-2.05191E+00 1.30363E-01 3.54242E-02-1.65059E+00
 -1        40 3.58767E+00 4.91923E+00 4.83368E+00 4.66656E-02 2.82086E-01-2.43863E-01
 -1        41 2.57807E+00-3.14892E+00-4.68380E+00 4.28325E-01 4.43032E-01-8.76114E-01
 -1        42 1.34997E+00-9.15208E+00-1.16956E+01-2.66068E+00 5.85057E-02 3.70236E+00
 -1        43 3.92605E+00 3.38993E+00 5.65366E+00 2.15010E-01-2.78918E-01 4.01785E-02
 -1        44 1.73396E+00 1.23033E+00 6.51009E-01-1.25201E+00-5.11411E-01 1.52833E+00
 -1        45-1.86960E-01-1.39972E+00-1.66357E+00 1.41409E+00-9.89877E-02-2.00230E+00
 -3
    1PSTEP                        91          23           1          
  100CL  123 23.00000000          45                     0   23           1
 -4  TOSTRAIN    6    1
 -5  EXX         1    4    1    1
 -5  EYY         1    4    2    2
 -5  EZZ         1    4    3    3
 -5  EXY         1    4    1    2
 -5  EYZ         1    4    2    3
 -5  EZX         1    4    3    1
 -1         1-4.37138E-03-4.16325E-03-1.81387E-03 4.22103E-04 3.98762E-04-7.37450E-04
 -1         2-3.33818E-03-3.44357E-03-2.91947E-03 4.89563E-05 3.00607E-06 9.26687E-05
 -1         3-3.37857E-03-4.47488E-03-1.34130E-03-2.80280E-04 1.96793E-05-1.93457E-05
 -1         4-1.42910E-03-4.53013E-03-2.91951E-03-2.27131E-04-2.21371E-05 4.12891E-04
 -1         5-2.24178E-02-1.76223E-02 4.58993E-03-4.45148E-03 5.25916E-04 6.99380E-03
 -1         6-2.10944E-02-2.50346E-02-1.07064E-02-5.92802E-03 2.74064E-04 3.98163E-03
 -1         7-2.00120E-02-2.74302E-02 4.88694E-05-2.94294E-03-8.66179E-04 8.51238E-03
 -1         8-1.74939E-02-2.80836E-02-1.14224E-02-3.70516E-04-1.74664E-05 1.56788E-03
 -1         9-2.77819E-02-2.44955E-02-1.82426E-02 2.28322E-03-3.03103E-04-6.18617E-04
 -1        10-2.13776E-02-2.49494E-02-1.82919E-02 5.29437E-04-4.71897E-04-7.49367E-04
 -1        11-3.25028E-02-2.56465E-02-2.25007E-02 1.00850E-03-5.50706E-04-1.34875E-03
 -1        12-2.92082E-02-2.35796E-02-2.26021E-02 2.77865E-04 2.53354E-04-1.61755E-03
 -1        13-1.87225E-02-2.42682E-02-1.04850E-02-2.29832E-03 1.79578E-03 2.73562E-03
 -1        14-3.11216E-02-2.95092E-02-1.51176E-02-4.19006E-03-1.15929E-03-1.45361E-03
 -1        15-1.42996E-02-1.38879E-02-1.03485E-02 1.50985E-03-2.05010E-04-4.76281E-04
 -1        16-2.76926E-03-4.12445E-03-3.00298E-03 1.45865E-04-1.85586E-05 6.51509E-04
 -1        17-2.37043E-02-2.75477E-02-1.68755E-02-3.24924E-04-3.37036E-04-2.64319E-03
 -1        18-1.16352E-02-1.42355E-02-1.01278E-02 3.76599E-04-4.28638E-05 2.71630E-04
 -1        19-1.85242E-02-2.27167E-02 4.11400E-03-4.95019E-03-3.50725E-04 8.34871E-03
 -1        20-3.78243E-02-2.47211E-02-1.28868E-02 1.10485E-04 2.83819E-04 5.45979E-05
 -1        21-1.60373E-02-1.35225E-02-9.92262E-03 2.02216E-03-3.97244E-05-2.68421E-03
 -1        22-3.85585E-03-4.70179E-03-1.46525E-03 1.84929E-04 3.33018E-04-1.44359E-05
 -1        23-3.32976E-02-2.58661E-02-1.50682E-02 1.29097E-03-9.20126E-04 2.89334E-03
 -1        24-1.55757E-02-1.37218E-02-1.01384E-02 1.42242E-04 3.02331E-05-1.72601E-03
 -1        25-3.58195E-03-3.76692E-03-2.94412E-03-8.34727E-05 3.54485E-04-4.83007E-04
 -1        26-1.68302E-02-1.81244E-02-2.79610E-03-6.24443E-03-2.51822E-04 8.08642E-03
 -1        27-1.85982E-03-4.50421E-03-2.35551E-03-4.90104E-04 3.33149E-05-1.62861E-04
 -1        28-1.71733E-02-2.76617E-02-4.47959E-03-1.40970E-03-7.31750E-04 7.25787E-03
 -1        29-2.56268E-02-2.80438E-02-1.53145E-02-2.34644E-03-4.83607E-04-1.25518E-03
 -1        30-2.35151E-02-2.41453E-02-1.84395E-02 2.17460E-03-1.85039E-04-4.09649E-04
 -1        31-1.19139E-02-1.37554E-02-1.05454E-02 4.19322E-04-1.95789E-04 4.79633E-05
 -1        32-3.32429E-02-2.81116E-02-1.41412E-02-1.58314E-03-1.05874E-03 2.43309E-03
 -1        33-1.56846E-02-1.40478E-02-9.95999E-03 1.52895E-03-9.87958E-05-1.94244E-03
 -1        34-2.99644E-02-2.42046E-02-2.22914E-02-2.97034E-04 2.29341E-05-1.44438E-03
 -1        35-3.07948E-02-2.69300E-02-1.82355E-02-2.59234E-03-5.94531E-04 2.88620E-03
 -1        36-1.45803E-02-1.35095E-02-1.15344E-02 1.44598E-03 9.99947E-05-2.30325E-03
 -1        37-2.87578E-02-2.42593E-02-2.00440E-02 2.01580E-03-6.87568E-05 6.22232E-04
 -1        38-2.52748E-02-2.73525E-02-1.85831E-02 5.59619E-04-6.51239E-04 1.23671E-03
 -1        39-1.32991E-02-1.38579E-02-1.14992E-02 1.93039E-04 1.19466E-04-1.68417E-03
 -1        40-2.42882E-02-2.36203E-02-1.95721E-02 1.06647E-04 3.84991E-04-3.53523E-04
 -1        41-2.96659E-03-4.49526E-03-2.64596E-03-1.96225E-04 2.52346E-04-1.44408E-04
 -1        42-1.37721E-02-2.40648E-02-4.23704E-03-5.90244E-03-2.22987E-04 8.54121E-03
 -1        43-2.45995E-02-2.50402E-02-2.00104E-02 5.09595E-04-4.00995E-04 2.57043E-04
 -1        44-2.70672E-02-2.76815E-02-1.81086E-02-1.46581E-03-9.02474E-04 2.01613E-03
 -1        45-1.37919E-02-1.41425E-02-1.11372E-02 1.30415E-03 5.78649E-06-2.08197E-03
 -3
    1PSTEP                        92          23           1          
  100CL  123 23.00000000          45                     0   23           1
 -4  ERROR       1    1
 -5  STR(%)      1    1    0    0
 -1         1 1.37795E+01
 -1         2 2.68371E+01
 -1         3 1.82365E+01
 -1         4 2.68371E+01
 -1         5 9.42554E+00
 -1         6 2.52383E+01
 -1         7 2.52142E+01
 -1         8 2.52383E+01
 -1         9 2.46273E+01
 -1        10 2.68371E+01
 -1        11 2.68371E+01
 -1        12 2.19854E+01
 -1        13 2.52383E+01
 -1        14 2.49328E+01
 -1        15 2.57322E+01
 -1        16 2.68371E+01
 -1        17 2.60377E+01
 -1        18 2.68371E+01
 -1        19 1.73199E+01
 -1        20 1.81313E+01
 -1        21 2.03083E+01
 -1        22 1.60080E+01
 -1        23 2.35998E+01
 -1        24 2.01109E+01
 -1        25 2.03083E+01
 -1        26 1.73319E+01
 -1        27 2.25368E+01
 -1        28 2.52263E+01
 -1        29 2.60377E+01
 -1        30 2.57322E+01
 -1        31 2.68371E+01
 -1        32 2.60257E+01
 -1        33 2.25368E+01
 -1        34 2.44113E+01
 -1        35 2.60377E+01
 -1        36 2.68371E+01
 -1        37 2.57322E+01
 -1        38 2.36119E+01
 -1        39 2.44113E+01
 -1        40 2.44113E+01
 -1        41 2.03083E+01
 -1        42 2.52263E+01
 -1        43 2.68371E+01
 -1        44 2.60377E+01
 -1        45 2.68371E+01
 -3
    1PSTEP                        93          24           1          
  100CL  124 24.00000000          45                     0   24           1
 -4  DISP        4    1
 -5  D1          1    2    1    0
 -5  D2          1    2    2    0
 -5  D3          1    2    3    0
 -5  ALL         1    2    0    0    1ALL
 -1         1-6.77613E+00-2.84510E+00 2.02391E+00
 -1         2-4.48817E+00-2.49556E+00 0.00000E+00
 -1         3-3.29600E+00 0.00000E+00 1.66983E+00
 -1         4 0.00000E+00 0.00000E+00 0.00000E+00
 -1         5 2.14187E+01-9.74785E+00-1.27184E+00
 -1         6 1.88218E+01-1.06019E+01 0.00000E+00
 -1         7 2.19334E+01 0.00000E+00-3.48454E-01
 -1         8 1.72873E+01 0.00000E+00 0.00000E+00
 -1         9 3.23851E+00-1.25207E+01 0.00000E+00
 -1        10 6.07314E+00 0.00000E+00 0.00000E+00
 -1        11 1.95732E+00-1.25703E+01 1.03821E+01
 -1        12 5.13024E+00 0.00000E+00 1.01183E+01
 -1        13 1.76643E+01-5.42083E+00 0.00000E+00
 -1        14 1.11347E+01-1.39222E+01 0.00000E+00
 -1        15-2.08079E+00-7.48642E+00 0.00000E+00
 -1        16-1.03315E+00-1.33772E+00 0.00000E+00
 -1        17 1.19956E+01 0.00000E+00 0.00000E+00
 -1        18 1.89797E+00 0.00000E+00 0.00000E+00
 -1        19 2.02757E+01-5.61320E+00-1.11996E+00
 -1        20 1.41648E+01-1.30118E+01 7.31211E+00
 -1        21-3.94759E+00-7.34652E+00 5.78692E+00
 -1        22-4.13343E+00-1.48747E+00 1.82875E+00
 -1        23 1.43126E+01 0.00000E+00 7.94350E+00
 -1        24-6.60874E-01 0.00000E+00 5.82476E+00
 -1        25-4.91394E+00-2.68455E+00 1.15129E+00
 -1        26 1.70975E+01-9.89392E+00 4.21870E-01
 -1        27-5.30151E-01 0.00000E+00 9.86039E-01
 -1        28 1.77704E+01 0.00000E+00 2.24402E-01
 -1        29 1.17856E+01-6.68021E+00 0.00000E+00
 -1        30 5.52464E+00-6.20717E+00 0.00000E+00
 -1        31 1.13686E+00-3.81935E+00 0.00000E+00
 -1        32 1.41626E+01-6.35360E+00 7.41661E+00
 -1        33-1.46016E+00-3.74458E+00 5.83045E+00
 -1        34 4.41239E+00-6.19013E+00 1.02559E+01
 -1        35 1.14483E+01-1.33606E+01 3.57998E+00
 -1        36-2.31452E+00-7.45513E+00 3.04425E+00
 -1        37 3.08784E+00-1.24441E+01 4.92518E+00
 -1        38 1.26315E+01 0.00000E+00 4.25214E+00
 -1        39 1.45325E+00 0.00000E+00 2.94582E+00
 -1        40 6.07690E+00 0.00000E+00 4.76969E+00
 -1        41-1.71434E+00-1.46480E+00 1.11417E+00
 -1        42 1.67864E+01-5.61677E+00 4.39719E-01
 -1        43 5.26704E+00-6.19709E+00 4.98618E+00
 -1        44 1.20838E+01-6.77999E+00 3.87826E+00
 -1        45 6.82599E-01-3.78716E+00 3.00038E+00
 -3
    1PSTEP                        94          24           1          
  100CL  124 24.00000000          45                     0   24           1
 -4  STRESS      6    1
 -5  SXX         1    4    1    1
 -5  SYY         1    4    2    2
 -5  SZZ         1    4    3    3
 -5  SXY         1    4    1    2
 -5  SYZ         1    4    2    3
 -5  SZX         1    4    3    1
 -1         1-2.51610E+00-1.81634E+00-2.21005E+00 1.54135E+00 6.35168E-01-1.84852E+00
 -1         2-1.18020E+00-1.79524E+00-6.79104E+00 1.21635E+00 1.19993E-01-4.12996E-01
 -1         3-7.10753E-01-5.01469E+00-1.00365E+00 3.66894E-02 3.16474E-03-1.21508E+00
 -1         4 7.06615E+00-4.16423E+00-6.19064E+00 7.93935E-03 7.44914E-02-4.91791E-03
 -1         5-5.48758E+00-1.99266E+00-3.00697E+00-2.23018E+00 2.32954E-01 3.24656E+00
 -1         6 1.68807E-01-4.21708E+00-1.08227E+01-3.27510E+00 2.88648E-01 1.76443E+00
 -1         7-9.22953E-01-1.05802E+01-3.96927E+00-1.31844E+00-2.77598E-01 4.16463E+00
 -1         8 8.94974E+00-4.59812E+00-7.52430E+00 1.24849E-01 6.72437E-02 3.68071E-01
 -1         9-5.80365E+00 1.93588E+00 6.67937E+00 1.34087E+00-3.05829E-01-3.54656E-01
 -1        10 1.24703E+01 6.17056E+00 1.12791E+01 2.84331E-01-4.65235E-01-5.08530E-01
 -1        11-8.07725E+00 3.89679E+00 4.96264E+00 5.93912E-01-5.11643E-01-8.32724E-01
 -1        12-4.96022E+00 5.28627E+00 1.34898E+00 1.36244E-01 1.54946E-01-8.20745E-01
 -1        13 2.54966E-01-5.85715E+00-1.37902E+01-1.04563E+00 1.10488E+00 1.05957E+00
 -1        14-2.96138E+00 7.51715E-02 5.50281E+00-3.03086E+00-7.14814E-01-8.63882E-01
 -1        15-3.08341E+00-1.26870E+00 4.54171E-01 2.26600E+00-3.67410E-01-4.24237E-01
 -1        16 2.08959E+00-2.85211E+00-7.65667E+00 8.38439E-01 2.92129E-01 4.07240E-01
 -1        17 9.56286E+00 3.41922E+00 4.70273E+00-1.96758E-01-2.86750E-01-1.86793E+00
 -1        18 6.21835E+00 9.31968E-02 1.90903E+00 5.74886E-01-1.55461E-01 5.52142E-01
 -1        19-1.55549E+00-7.65660E+00-3.73366E+00-2.46071E+00-6.51438E-02 3.95692E+00
 -1        20-1.19501E+01 4.44341E+00 6.09149E+00-3.69799E-01-4.29860E-02 2.72336E-01
 -1        21-7.83777E+00 6.76921E-01 1.84542E+00 2.67114E+00-2.29057E-01-3.08779E+00
 -1        22-7.67202E-01-4.61616E+00-1.36501E+00 1.20510E+00 5.15182E-01-9.06250E-01
 -1        23-6.35797E+00 2.73701E+00 2.76796E+00 6.92723E-01-4.73469E-01 1.83135E+00
 -1        24-5.88739E+00-3.20349E-01 6.97712E-01 6.94151E-02-5.61980E-02-1.95869E+00
 -1        25-4.89156E-01-1.11646E+00-6.56580E+00 8.50932E-01 5.47376E-01-1.71464E+00
 -1        26-5.44602E-01-2.91866E+00-1.05475E+01-3.14966E+00-5.57425E-02 3.81298E+00
 -1        27 5.01097E+00-4.72663E+00-3.67075E+00-3.25205E-01 3.49396E-02-1.31729E+00
 -1        28 4.11748E+00-9.00765E+00-6.21145E+00-4.49420E-01-2.74153E-01 3.48384E+00
 -1        29 7.28367E+00 2.90179E+00 6.05523E+00-1.45814E+00-4.00678E-01-9.49923E-01
 -1        30 4.97386E+00 4.66162E+00 8.13139E+00 1.22103E+00-2.17736E-01-2.89723E-01
 -1        31 4.72590E+00 8.51206E-01 1.27565E+00 8.80796E-01-3.03090E-01 3.78607E-02
 -1        32-6.49899E+00 3.16036E-01 4.48989E+00-1.43826E+00-6.42981E-01 1.70218E+00
 -1        33-6.54171E+00-1.59326E+00 8.51496E-01 1.89453E+00-2.84547E-01-2.26757E+00
 -1        34-6.55289E+00 3.46447E+00 1.42911E+00-1.70823E-01-1.73235E-02-7.05699E-01
 -1        35-3.85012E+00 1.95205E+00 2.26724E-01-2.07335E+00-3.47769E-01 2.22510E+00
 -1        36-3.87169E+00-4.59275E-01-2.61239E+00 1.99378E+00 7.83539E-03-2.61141E+00
 -1        37-8.06881E+00 1.33910E+00 2.37356E+00 1.10677E+00-5.01045E-02 4.55832E-01
 -1        38 4.87267E+00 2.83015E+00 6.09512E-01 4.29796E-01-3.44544E-01 9.81628E-01
 -1        39 1.85820E+00-1.52848E-01-2.21708E+00 1.34251E-01 3.26061E-02-1.80471E+00
 -1        40 3.96204E+00 5.47629E+00 5.33795E+00 4.92630E-02 3.09105E-01-2.54281E-01
 -1        41 2.85418E+00-3.56275E+00-5.22587E+00 5.01641E-01 4.93712E-01-9.90373E-01
 -1        42 1.50252E+00-9.94339E+00-1.26684E+01-2.88091E+00 7.49223E-02 4.00327E+00
 -1        43 4.33376E+00 3.76895E+00 6.23961E+00 2.17652E-01-3.08882E-01 4.89563E-02
 -1        44 1.88488E+00 1.27816E+00 6.42964E-01-1.39346E+00-5.54766E-01 1.69194E+00
 -1        45-1.79573E-01-1.50415E+00-1.79678E+00 1.55778E+00-1.15248E-01-2.19113E+00
 -3
    1PSTEP                        95          24           1          
  100CL  124 24.00000000          45                     0   24           1
 -4  TOSTRAIN    6    1
 -5  EXX         1    4    1    1
 -5  EYY         1    4    2    2
 -5  EZZ         1    4    3    3
 -5  EXY         1    4    1    2
 -5  EYZ         1    4    2    3
 -5  EZX         1    4    3    1
 -1         1-5.17169E-03-4.96872E-03-2.65500E-03 5.96641E-04 4.79195E-04-9.36657E-04
 -1         2-4.12410E-03-4.27929E-03-4.11394E-03 1.93550E-04 2.29172E-05 7.15073E-05
 -1         3-4.08192E-03-5.51268E-03-2.13059E-03-2.96006E-04 2.02744E-05-1.58405E-04
 -1         4-1.70465E-03-5.55245E-03-4.10623E-03-2.47641E-04-1.01601E-05 4.52740E-04
 -1         5-1.90701E-02-1.35813E-02 1.10061E-02-5.12600E-03 5.85643E-04 7.94867E-03
 -1         6-1.75009E-02-2.20261E-02-6.47104E-03-6.86852E-03 3.47673E-04 4.56211E-03
 -1         7-1.61730E-02-2.49426E-02 5.90197E-03-3.37660E-03-9.44310E-04 9.72013E-03
 -1         8-1.31743E-02-2.56308E-02-7.25654E-03-3.87494E-04-1.25729E-05 1.73889E-03
 -1         9-2.95472E-02-2.54668E-02-1.86371E-02 2.51104E-03-3.56151E-04-6.78502E-04
 -1        10-2.18281E-02-2.59840E-02-1.87237E-02 5.91030E-04-5.73336E-04-8.55112E-04
 -1        11-3.49101E-02-2.68293E-02-2.36140E-02 1.07319E-03-6.54738E-04-1.45625E-03
 -1        12-3.10372E-02-2.43803E-02-2.37558E-02 3.01499E-04 2.86774E-04-1.74536E-03
 -1        13-1.47048E-02-2.12036E-02-6.21098E-03-2.65423E-03 2.07019E-03 3.10224E-03
 -1        14-3.11040E-02-2.91803E-02-1.32563E-02-4.95437E-03-1.32601E-03-1.60700E-03
 -1        15-1.54841E-02-1.48809E-02-1.11134E-02 1.87232E-03-2.65424E-04-5.12372E-04
 -1        16-3.32863E-03-4.99100E-03-4.21409E-03 2.33238E-04 3.13206E-05 7.28442E-04
 -1        17-2.23833E-02-2.69838E-02-1.52720E-02-3.71270E-04-3.97431E-04-3.05136E-03
 -1        18-1.21705E-02-1.52166E-02-1.09037E-02 4.55758E-04-7.10275E-05 3.82933E-04
 -1        19-1.45162E-02-1.94955E-02 1.04699E-02-5.69054E-03-3.68600E-04 9.51787E-03
 -1        20-3.88448E-02-2.36753E-02-1.06974E-02-1.15530E-05 2.74926E-04 1.52136E-04
 -1        21-1.75018E-02-1.43538E-02-1.06261E-02 2.40198E-03-8.71726E-05-3.10975E-03
 -1        22-4.54936E-03-5.69010E-03-2.25376E-03 3.19323E-04 3.99414E-04-1.11726E-04
 -1        23-3.35390E-02-2.50341E-02-1.31708E-02 1.43716E-03-1.04229E-03 3.40373E-03
 -1        24-1.68861E-02-1.45981E-02-1.09112E-02 1.38627E-04 2.28671E-05-2.00140E-03
 -1        25-4.25336E-03-4.51912E-03-4.04775E-03 1.54237E-05 4.23773E-04-6.71725E-04
 -1        26-1.26640E-02-1.41513E-02 2.54374E-03-7.19450E-03-2.70139E-04 9.20961E-03
 -1        27-2.22209E-03-5.55252E-03-3.33957E-03-5.48746E-04 3.83629E-05-3.10524E-04
 -1        28-1.28807E-02-2.51699E-02 6.97031E-04-1.59509E-03-8.17340E-04 8.25269E-03
 -1        29-2.46512E-02-2.74979E-02-1.35003E-02-2.74267E-03-5.64463E-04-1.43079E-03
 -1        30-2.44164E-02-2.50412E-02-1.88811E-02 2.40796E-03-2.23000E-04-4.64644E-04
 -1        31-1.25057E-02-1.46864E-02-1.13574E-02 5.36528E-04-2.47816E-04 7.82825E-05
 -1        32-3.34804E-02-2.76563E-02-1.21170E-02-1.94682E-03-1.20536E-03 2.89779E-03
 -1        33-1.70460E-02-1.50128E-02-1.07157E-02 1.82128E-03-1.46879E-04-2.27030E-03
 -1        34-3.19078E-02-2.51403E-02-2.33962E-02-3.67879E-04 2.23541E-05-1.54292E-03
 -1        35-3.07185E-02-2.62111E-02-1.68711E-02-3.13605E-03-6.65459E-04 3.41692E-03
 -1        36-1.57672E-02-1.44129E-02-1.25297E-02 1.74995E-03 9.88456E-05-2.70299E-03
 -1        37-3.06402E-02-2.52005E-02-2.07640E-02 2.19548E-03-7.24611E-05 7.39006E-04
 -1        38-2.42690E-02-2.67396E-02-1.72630E-02 6.41811E-04-7.36251E-04 1.48186E-03
 -1        39-1.41210E-02-1.47684E-02-1.25305E-02 1.95889E-04 1.20615E-04-1.94444E-03
 -1        40-2.52598E-02-2.44081E-02-2.02364E-02 1.17486E-04 4.44462E-04-3.68099E-04
 -1        41-3.44180E-03-5.41903E-03-3.68101E-03-1.45262E-04 3.18907E-04-2.45509E-04
 -1        42-9.09906E-03-2.10264E-02 9.21657E-04-6.78405E-03-2.00934E-04 9.74145E-03
 -1        43-2.56395E-02-2.61139E-02-2.07339E-02 5.33879E-04-4.71755E-04 3.10880E-04
 -1        44-2.63155E-02-2.71506E-02-1.67179E-02-1.78423E-03-1.02398E-03 2.39928E-03
 -1        45-1.47532E-02-1.51393E-02-1.20999E-02 1.55013E-03-1.52787E-05-2.41186E-03
 -3
    1PSTEP                        96          24           1          
  100CL  124 24.00000000          45                     0   24           1
 -4  ERROR       1    1
 -5  STR(%)      1    1    0    0
 -1         1 1.35447E+01
 -1         2 2.68063E+01
 -1         3 1.82891E+01
 -1         4 2.68063E+01
 -1         5 9.39263E+00
 -1         6 2.53624E+01
 -1         7 2.50253E+01
 -1         8 2.53624E+01
 -1         9 2.45339E+01
 -1        10 2.68063E+01
 -1        11 2.68063E+01
 -1        12 2.17460E+01
 -1        13 2.53624E+01
 -1        14 2.49481E+01
 -1        15 2.56701E+01
 -1        16 2.68063E+01
 -1        17 2.60843E+01
 -1        18 2.68063E+01
 -1        19 1.72090E+01
 -1        20 1.80995E+01
 -1        21 2.01755E+01
 -1        22 1.59169E+01
 -1        23 2.33857E+01
 -1        24 2.00176E+01
 -1        25 2.01755E+01
 -1        26 1.73775E+01
 -1        27 2.25477E+01
 -1        28 2.51939E+01
 -1        29 2.60843E+01
 -1        30 2.56701E+01
 -1        31 2.68063E+01
 -1        32 2.59158E+01
 -1        33 2.25477E+01
 -1        34 2.42762E+01
 -1        35 2.60843E+01
 -1        36 2.68063E+01
 -1        37 2.56701E+01
 -1        38 2.35542E+01
 -1        39 2.42762E+01
 -1        40 2.42762E+01
 -1        41 2.01755E+01
 -1        42 2.51939E+01
 -1        43 2.68063E+01
 -1        44 2.60843E+01
 -1        45 2.68063E+01
 -3
    1PSTEP                        97          25           1          
  100CL  125 25.00000000          45                     0   25           1
 -4  DISP        4    1
 -5  D1          1    2    1    0
 -5  D2          1    2    2    0
 -5  D3          1    2    3    0
 -5  ALL         1    2    0    0    1ALL
 -1         1-6.24961E+00-3.34553E+00 2.58420E+00
 -1         2-4.40773E+00-2.93114E+00 0.00000E+00
 -1         3-3.06217E+00 0.00000E+00 2.16636E+00
 -1         4 0.00000E+00 0.00000E+00 0.00000E+00
 -1         5 2.31296E+01-7.92185E+00-4.22616E+00
 -1         6 1.93854E+01-8.85821E+00 0.00000E+00
 -1         7 2.28543E+01 0.00000E+00-3.21734E+00
 -1         8 1.67304E+01 0.00000E+00 0.00000E+00
 -1         9 3.90487E+00-1.29308E+01 0.00000E+00
 -1        10 6.31311E+00 0.00000E+00 0.00000E+00
 -1        11 3.21771E+00-1.30016E+01 1.06951E+01
 -1        12 6.01589E+00 0.00000E+00 1.04021E+01
 -1        13 1.73978E+01-4.57396E+00 0.00000E+00
 -1        14 1.20287E+01-1.35748E+01 0.00000E+00
 -1        15-1.74507E+00-7.96309E+00 0.00000E+00
 -1        16-9.92052E-01-1.57151E+00 0.00000E+00
 -1        17 1.21314E+01 0.00000E+00 0.00000E+00
 -1        18 2.03035E+00 0.00000E+00 0.00000E+00
 -1        19 2.11712E+01-4.80961E+00-4.06066E+00
 -1        20 1.62367E+01-1.25494E+01 6.32888E+00
 -1        21-3.13799E+00-7.77884E+00 6.18753E+00
 -1        22-3.80324E+00-1.75587E+00 2.35442E+00
 -1        23 1.55822E+01 0.00000E+00 7.04109E+00
 -1        24-1.61304E-01 0.00000E+00 6.25461E+00
 -1        25-4.67566E+00-3.15258E+00 1.45937E+00
 -1        26 1.76240E+01-8.08073E+00-9.11943E-01
 -1        27-4.19245E-01 0.00000E+00 1.26025E+00
 -1        28 1.74988E+01 0.00000E+00-1.14905E+00
 -1        29 1.21050E+01-6.47659E+00 0.00000E+00
 -1        30 5.88573E+00-6.40211E+00 0.00000E+00
 -1        31 1.35806E+00-4.06406E+00 0.00000E+00
 -1        32 1.55963E+01-6.10555E+00 6.44879E+00
 -1        33-8.75235E-01-3.97305E+00 6.25475E+00
 -1        34 5.39786E+00-6.38779E+00 1.05559E+01
 -1        35 1.25551E+01-1.29454E+01 3.08218E+00
 -1        36-1.82728E+00-7.91891E+00 3.26722E+00
 -1        37 3.91820E+00-1.28453E+01 5.03836E+00
 -1        38 1.30548E+01 0.00000E+00 3.84096E+00
 -1        39 1.70629E+00 0.00000E+00 3.16766E+00
 -1        40 6.50681E+00 0.00000E+00 4.86550E+00
 -1        41-1.56891E+00-1.72971E+00 1.41784E+00
 -1        42 1.66099E+01-4.80788E+00-8.96444E-01
 -1        43 5.79015E+00-6.39113E+00 5.11203E+00
 -1        44 1.26380E+01-6.58990E+00 3.42069E+00
 -1        45 1.02442E+00-4.02480E+00 3.22109E+00
 -3
    1PSTEP                        98          25           1          
  100CL  125 25.00000000          45                     0   25           1
 -4  STRESS      6    1
 -5  SXX         1    4    1    1
 -5  SYY         1    4    2    2
 -5  SZZ         1    4    3    3
 -5  SXY         1    4    1    2
 -5  SYZ         1    4    2    3
 -5  SZX         1    4    3    1
 -1         1-2.77559E+00-2.03523E+00-2.45175E+00 1.71670E+00 6.94881E-01-2.04155E+00
 -1         2-1.32512E+00-2.01382E+00-7.45786E+00 1.37208E+00 1.37816E-01-4.62532E-01
 -1         3-8.22838E-01-5.60589E+00-1.12014E+00 5.21839E-02 2.52930E-03-1.37138E+00
 -1         4 7.78331E+00-4.60704E+00-6.80946E+00 1.55234E-02 8.62793E-02-1.61399E-02
 -1         5-5.90660E+00-2.15218E+00-3.23652E+00-2.40419E+00 2.47076E-01 3.49075E+00
 -1         6 1.58913E-01-4.59950E+00-1.17669E+01-3.54357E+00 3.23380E-01 1.89561E+00
 -1         7-9.68829E-01-1.14906E+01-4.27773E+00-1.41102E+00-2.87121E-01 4.48691E+00
 -1         8 9.69414E+00-5.08919E+00-8.24051E+00 1.49553E-01 7.56351E-02 3.81871E-01
 -1         9-6.42162E+00 2.14570E+00 7.32941E+00 1.42022E+00-3.34424E-01-3.73711E-01
 -1        10 1.36526E+01 6.80165E+00 1.23519E+01 3.00317E-01-5.14155E-01-5.50026E-01
 -1        11-8.81851E+00 4.26929E+00 5.40310E+00 6.16533E-01-5.62254E-01-8.72702E-01
 -1        12-5.39815E+00 5.83500E+00 1.49420E+00 1.42604E-01 1.67112E-01-8.54502E-01
 -1        13 2.73017E-01-6.37300E+00-1.49523E+01-1.12277E+00 1.20015E+00 1.13151E+00
 -1        14-3.29374E+00 3.04435E-02 5.88408E+00-3.32158E+00-7.68631E-01-9.22559E-01
 -1        15-3.42619E+00-1.38068E+00 5.67013E-01 2.50618E+00-4.08449E-01-4.48197E-01
 -1        16 2.26729E+00-3.17351E+00-8.46569E+00 9.36195E-01 3.36145E-01 4.30874E-01
 -1        17 1.03952E+01 3.65475E+00 5.05176E+00-2.13874E-01-3.13299E-01-2.02884E+00
 -1        18 6.84482E+00 1.66725E-01 2.13523E+00 6.30758E-01-1.75576E-01 6.22075E-01
 -1        19-1.63045E+00-8.27624E+00-4.01393E+00-2.64837E+00-6.39013E-02 4.25879E+00
 -1        20-1.29996E+01 4.77738E+00 6.54272E+00-4.37083E-01-5.57552E-02 3.22579E-01
 -1        21-8.58933E+00 8.16561E-01 2.08451E+00 2.92210E+00-2.62812E-01-3.35777E+00
 -1        22-8.71665E-01-5.16188E+00-1.54730E+00 1.34993E+00 5.64287E-01-1.02315E+00
 -1        23-6.90747E+00 2.92584E+00 2.98122E+00 7.42107E-01-5.05644E-01 2.00593E+00
 -1        24-6.44919E+00-3.00411E-01 7.94967E-01 6.78298E-02-6.48073E-02-2.13348E+00
 -1        25-5.85423E-01-1.29885E+00-7.26257E+00 9.70043E-01 5.98272E-01-1.90552E+00
 -1        26-5.61358E-01-3.14633E+00-1.13671E+01-3.39643E+00-5.68790E-02 4.09812E+00
 -1        27 5.48505E+00-5.28771E+00-4.03597E+00-3.44538E-01 3.77362E-02-1.47708E+00
 -1        28 4.47782E+00-9.80696E+00-6.73409E+00-4.71096E-01-2.88842E-01 3.74803E+00
 -1        29 7.91716E+00 3.12096E+00 6.50555E+00-1.58824E+00-4.33218E-01-1.02994E+00
 -1        30 5.42199E+00 5.14418E+00 8.91949E+00 1.29462E+00-2.39846E-01-3.12158E-01
 -1        31 5.20856E+00 9.70835E-01 1.46481E+00 9.75061E-01-3.35608E-01 4.71172E-02
 -1        32-7.06197E+00 2.92509E-01 4.82125E+00-1.58918E+00-6.92541E-01 1.87027E+00
 -1        33-7.17598E+00-1.70952E+00 9.54365E-01 2.07316E+00-3.19834E-01-2.47477E+00
 -1        34-7.13104E+00 3.82990E+00 1.57389E+00-1.93379E-01-1.99111E-02-7.29945E-01
 -1        35-4.21333E+00 2.07845E+00 1.79161E-01-2.28264E+00-3.71252E-01 2.43851E+00
 -1        36-4.26231E+00-4.86466E-01-2.80775E+00 2.19222E+00 3.42957E-03-2.84978E+00
 -1        37-8.86484E+00 1.48934E+00 2.61536E+00 1.16476E+00-5.35753E-02 5.05733E-01
 -1        38 5.25952E+00 3.01404E+00 5.85886E-01 4.66421E-01-3.70482E-01 1.08463E+00
 -1        39 2.08699E+00-1.03028E-01-2.38444E+00 1.38139E-01 2.95782E-02-1.96129E+00
 -1        40 4.34252E+00 6.04781E+00 5.85512E+00 5.18141E-02 3.36673E-01-2.63639E-01
 -1        41 3.13583E+00-3.98637E+00-5.78099E+00 5.77035E-01 5.45434E-01-1.10790E+00
 -1        42 1.65863E+00-1.07329E+01-1.36412E+01-3.09885E+00 9.20839E-02 4.30245E+00
 -1        43 4.74979E+00 4.15734E+00 6.84026E+00 2.18727E-01-3.39633E-01 5.87804E-02
 -1        44 2.03593E+00 1.31970E+00 6.27074E-01-1.53865E+00-5.98600E-01 1.85999E+00
 -1        45-1.70777E-01-1.60909E+00-1.93134E+00 1.70348E+00-1.32027E-01-2.38303E+00
 -3
    1PSTEP                        99          25           1          
  100CL  125 25.00000000          45                     0   25           1
 -4  TOSTRAIN    6    1
 -5  EXX         1    4    1    1
 -5  EYY         1    4    2    2
 -5  EZZ         1    4    3    3
 -5  EXY         1    4    1    2
 -5  EYZ         1    4    2    3
 -5  EZX         1    4    3    1
 -1         1-5.97017E-03-5.77335E-03-3.49499E-03 7.84654E-04 5.64747E-04-1.15046E-03
 -1         2-4.91071E-03-5.11988E-03-5.33370E-03 3.50839E-04 4.47472E-05 4.79349E-05
 -1         3-4.77950E-03-6.56839E-03-2.91608E-03-3.11674E-04 2.09494E-05-3.09946E-04
 -1         4-1.94477E-03-6.59117E-03-5.31755E-03-2.68821E-04 2.98712E-06 4.93774E-04
 -1         5-1.52890E-02-9.05402E-03 1.80614E-02-5.84539E-03 6.47698E-04 8.96607E-03
 -1         6-1.34436E-02-1.85944E-02-1.73847E-03-7.87056E-03 4.28756E-04 5.18072E-03
 -1         7-1.18582E-02-2.20734E-02 1.23617E-02-3.83738E-03-1.02434E-03 1.10062E-02
 -1         8-8.34084E-03-2.27954E-02-2.59571E-03-4.05310E-04-6.96648E-06 1.92219E-03
 -1         9-3.12966E-02-2.63676E-02-1.89164E-02 2.74798E-03-4.12645E-04-7.40479E-04
 -1        10-2.21783E-02-2.69512E-02-1.90438E-02 6.55237E-04-6.81796E-04-9.67151E-04
 -1        11-3.73373E-02-2.79558E-02-2.46600E-02 1.13799E-03-7.65609E-04-1.56661E-03
 -1        12-3.28518E-02-2.50989E-02-2.48437E-02 3.26036E-04 3.22087E-04-1.87634E-03
 -1        13-1.01952E-02-1.77162E-02-1.43687E-03-3.03371E-03 2.36269E-03 3.49352E-03
 -1        14-3.08989E-02-2.86458E-02-1.10917E-02-5.77046E-03-1.50065E-03-1.76657E-03
 -1        15-1.66583E-02-1.58490E-02-1.18319E-02 2.25993E-03-3.30101E-04-5.49383E-04
 -1        16-3.87150E-03-5.86213E-03-5.45159E-03 3.27671E-04 8.57170E-05 8.08812E-04
 -1        17-2.07927E-02-2.62031E-02-1.33810E-02-4.20864E-04-4.61478E-04-3.48346E-03
 -1        18-1.26514E-02-1.61701E-02-1.16352E-02 5.40077E-04-1.01445E-04 5.02490E-04
 -1        19-1.00275E-02-1.58435E-02 1.74614E-02-6.47840E-03-3.86754E-04 1.07638E-02
 -1        20-3.97442E-02-2.23806E-02-8.18225E-03-1.47267E-04 2.64743E-04 2.61293E-04
 -1        21-1.89725E-02-1.51481E-02-1.12801E-02 2.80543E-03-1.38605E-04-3.56053E-03
 -1        22-5.23422E-03-6.69095E-03-3.03796E-03 4.64733E-04 4.70171E-04-2.17869E-04
 -1        23-3.36093E-02-2.39699E-02-1.09619E-02 1.59036E-03-1.17007E-03 3.95036E-03
 -1        24-1.81923E-02-1.54400E-02-1.16394E-02 1.34239E-04 1.47972E-05-2.29333E-03
 -1        25-4.91508E-03-5.26760E-03-5.16832E-03 1.23583E-04 4.97454E-04-8.74966E-04
 -1        26-8.00735E-03-9.69645E-03 8.45232E-03-8.20723E-03-2.89514E-04 1.04044E-02
 -1        27-2.55503E-03-6.61957E-03-4.33261E-03-6.10130E-04 4.37743E-05-4.70802E-04
 -1        28-8.08062E-03-2.22945E-02 6.43477E-03-1.79191E-03-9.06482E-04 9.31090E-03
 -1        29-2.34292E-02-2.67331E-02-1.13864E-02-3.16538E-03-6.48484E-04-1.61558E-03
 -1        30-2.52460E-02-2.58613E-02-1.92111E-02 2.65159E-03-2.63695E-04-5.22664E-04
 -1        31-1.30466E-02-1.55876E-02-1.21266E-02 6.61967E-04-3.03523E-04 1.10714E-04
 -1        32-3.35440E-02-2.69936E-02-9.77664E-03-2.33664E-03-1.35935E-03 3.39632E-03
 -1        33-1.84066E-02-1.59498E-02-1.14263E-02 2.13162E-03-1.98706E-04-2.61824E-03
 -1        34-3.38432E-02-2.60030E-02-2.44329E-02-4.44517E-04 2.16608E-05-1.64310E-03
 -1        35-3.04484E-02-2.52638E-02-1.52357E-02-3.71869E-03-7.39053E-04 3.98397E-03
 -1        36-1.69425E-02-1.52854E-02-1.34940E-02 2.07367E-03 9.71936E-05-3.12702E-03
 -1        37-3.25121E-02-2.60697E-02-2.13901E-02 2.38152E-03-7.65215E-05 8.64748E-04
 -1        38-2.30123E-02-2.59073E-02-1.56724E-02 7.28438E-04-8.26013E-04 1.74583E-03
 -1        39-1.49057E-02-1.56470E-02-1.35343E-02 1.98359E-04 1.21374E-04-2.22000E-03
 -1        40-2.61639E-02-2.51122E-02-2.08040E-02 1.28797E-04 5.07584E-04-3.81526E-04
 -1        41-3.89282E-03-6.35072E-03-4.72835E-03-8.89233E-05 3.90103E-04-3.55270E-04
 -1        42-3.89934E-03-1.75689E-02 6.63833E-03-7.72192E-03-1.75453E-04 1.10184E-02
 -1        43-2.66156E-02-2.71236E-02-2.13642E-02 5.57225E-04-5.47344E-04 3.69167E-04
 -1        44-2.53267E-02-2.64062E-02-1.50538E-02-2.12521E-03-1.15243E-03 2.80938E-03
 -1        45-1.56867E-02-1.61106E-02-1.30306E-02 1.81113E-03-3.81809E-05-2.76131E-03
 -3
    1PSTEP                       100          25           1          
  100CL  125 25.00000000          45                     0   25           1
 -4  ERROR       1    1
 -5  STR(%)      1    1    0    0
 -1         1 1.33385E+01
 -1         2 2.67784E+01
 -1         3 1.83334E+01
 -1         4 2.67784E+01
 -1         5 9.53339E+00
 -1         6 2.54855E+01
 -1         7 2.48563E+01
 -1         8 2.54855E+01
 -1         9 2.44518E+01
 -1        10 2.67784E+01
 -1        11 2.67784E+01
 -1        12 2.15192E+01
 -1        13 2.54855E+01
 -1        14 2.49687E+01
 -1        15 2.56151E+01
 -1        16 2.67784E+01
 -1        17 2.61320E+01
 -1        18 2.67784E+01
 -1        19 1.71948E+01
 -1        20 1.81559E+01
 -1        21 2.00585E+01
 -1        22 1.58360E+01
 -1        23 2.31877E+01
 -1        24 1.99263E+01
 -1        25 2.00585E+01
 -1        26 1.75094E+01
 -1        27 2.25559E+01
 -1        28 2.51709E+01
 -1        29 2.61320E+01
 -1        30 2.56151E+01
 -1        31 2.67784E+01
 -1        32 2.58173E+01
 -1        33 2.25559E+01
 -1        34 2.41488E+01
 -1        35 2.61320E+01
 -1        36 2.67784E+01
 -1        37 2.56151E+01
 -1        38 2.35023E+01
 -1        39 2.41488E+01
 -1        40 2.41488E+01
 -1        41 2.00585E+01
 -1        42 2.51709E+01
 -1        43 2.67784E+01
 -1        44 2.61320E+01
 -1        45 2.67784E+01
 -3
    1PSTEP                       101          26           1          
  100CL  126 26.00000000          45                     0   26           1
 -4  DISP        4    1
 -5  D1          1    2    1    0
 -5  D2          1    2    2    0
 -5  D3          1    2    3    0
 -5  ALL         1    2    0    0    1ALL
 -1         1-5.65277E+00-3.85210E+00 3.15283E+00
 -1         2-4.30365E+00-3.36894E+00 0.00000E+00
 -1         3-2.79494E+00 0.00000E+00 2.66729E+00
 -1         4 0.00000E+00 0.00000E+00 0.00000E+00
 -1         5 2.48526E+01-5.88079E+00-7.46520E+00
 -1         6 1.98729E+01-6.90347E+00 0.00000E+00
 -1         7 2.37203E+01 0.00000E+00-6.36713E+00
 -1         8 1.60113E+01 0.00000E+00 0.00000E+00
 -1         9 4.58961E+00-1.33027E+01 0.00000E+00
 -1        10 6.52613E+00 0.00000E+00 0.00000E+00
 -1        11 4.55112E+00-1.33962E+01 1.09609E+01
 -1        12 6.93271E+00 0.00000E+00 1.06373E+01
 -1        13 1.69915E+01-3.62344E+00 0.00000E+00
 -1        14 1.29172E+01-1.31204E+01 0.00000E+00
 -1        15-1.38589E+00-8.42640E+00 0.00000E+00
 -1        16-9.43717E-01-1.80737E+00 0.00000E+00
 -1        17 1.21970E+01 0.00000E+00 0.00000E+00
 -1        18 2.15446E+00 0.00000E+00 0.00000E+00
 -1        19 2.20151E+01-3.90557E+00-7.28539E+00
 -1        20 1.83898E+01-1.19752E+01 5.19996E+00
 -1        21-2.25763E+00-8.19473E+00 6.56760E+00
 -1        22-3.42862E+00-2.02857E+00 2.88634E+00
 -1        23 1.68678E+01 0.00000E+00 5.99632E+00
 -1        24 3.71598E-01 0.00000E+00 6.66617E+00
 -1        25-4.39885E+00-3.62475E+00 1.77340E+00
 -1        26 1.80771E+01-6.05320E+00-2.37913E+00
 -1        27-2.96736E-01 0.00000E+00 1.53823E+00
 -1        28 1.70863E+01 0.00000E+00-2.65873E+00
 -1        29 1.23696E+01-6.21802E+00 0.00000E+00
 -1        30 6.23155E+00-6.57735E+00 0.00000E+00
 -1        31 1.58103E+00-4.30231E+00 0.00000E+00
 -1        32 1.70597E+01-5.80071E+00 5.33593E+00
 -1        33-2.47104E-01-4.19398E+00 6.66028E+00
 -1        34 6.42517E+00-6.56596E+00 1.08080E+01
 -1        35 1.36724E+01-1.24206E+01 2.51126E+00
 -1        36-1.30299E+00-8.36841E+00 3.48114E+00
 -1        37 4.78107E+00-1.32079E+01 5.12526E+00
 -1        38 1.34292E+01 0.00000E+00 3.36141E+00
 -1        39 1.96308E+00 0.00000E+00 3.38078E+00
 -1        40 6.92565E+00 0.00000E+00 4.93424E+00
 -1        41-1.40459E+00-1.99873E+00 1.72726E+00
 -1        42 1.63036E+01-3.89808E+00-2.36620E+00
 -1        43 6.31268E+00-6.56529E+00 5.21250E+00
 -1        44 1.31556E+01-6.34615E+00 2.89228E+00
 -1        45 1.38007E+00-4.25551E+00 3.43275E+00
 -3
    1PSTEP                       102          26           1          
  100CL  126 26.00000000          45                     0   26           1
 -4  STRESS      6    1
 -5  SXX         1    4    1    1
 -5  SYY         1    4    2    2
 -5  SZZ         1    4    3    3
 -5  SXY         1    4    1    2
 -5  SYZ         1    4    2    3
 -5  SZX         1    4    3    1
 -1         1-3.03986E+00-2.25900E+00-2.69920E+00 1.89551E+00 7.55306E-01-2.23861E+00
 -1         2-1.47320E+00-2.23790E+00-8.13735E+00 1.53191E+00 1.56281E-01-5.13363E-01
 -1         3-9.39949E-01-6.20946E+00-1.23975E+00 6.84735E-02 1.96753E-03-1.53230E+00
 -1         4 8.51373E+00-5.05804E+00-7.44060E+00 2.35647E-02 9.84601E-02-2.83806E-02
 -1         5-6.32247E+00-2.31068E+00-3.46549E+00-2.57641E+00 2.60433E-01 3.73359E+00
 -1         6 1.48474E-01-4.98700E+00-1.27224E+01-3.81119E+00 3.60123E-01 2.02417E+00
 -1         7-1.01414E+00-1.24030E+01-4.58540E+00-1.50026E+00-2.94945E-01 4.80795E+00
 -1         8 1.04377E+01-5.59538E+00-8.97579E+00 1.75955E-01 8.46186E-02 3.94866E-01
 -1         9-7.05066E+00 2.36139E+00 7.99648E+00 1.49796E+00-3.63588E-01-3.91992E-01
 -1        10 1.48520E+01 7.44663E+00 1.34467E+01 3.15423E-01-5.64053E-01-5.92160E-01
 -1        11-9.56727E+00 4.64472E+00 5.84749E+00 6.36184E-01-6.13782E-01-9.09677E-01
 -1        12-5.84281E+00 6.39558E+00 1.64490E+00 1.48780E-01 1.79338E-01-8.85489E-01
 -1        13 2.87233E-01-6.89338E+00-1.61262E+01-1.19788E+00 1.29687E+00 1.20153E+00
 -1        14-3.63362E+00-1.96971E-02 6.25956E+00-3.61760E+00-8.21092E-01-9.80829E-01
 -1        15-3.77599E+00-1.49403E+00 6.86194E-01 2.75135E+00-4.50330E-01-4.71825E-01
 -1        16 2.44729E+00-3.50152E+00-9.29207E+00 1.03609E+00 3.81506E-01 4.53993E-01
 -1        17 1.12324E+01 3.88532E+00 5.39713E+00-2.31576E-01-3.40075E-01-2.19110E+00
 -1        18 7.48182E+00 2.44650E-01 2.36821E+00 6.87501E-01-1.96199E-01 6.93515E-01
 -1        19-1.70150E+00-8.89101E+00-4.29270E+00-2.83307E+00-6.24228E-02 4.55873E+00
 -1        20-1.40549E+01 5.10667E+00 6.98961E+00-5.08183E-01-6.83927E-02 3.76538E-01
 -1        21-9.35197E+00 9.60731E-01 2.33016E+00 3.17615E+00-2.97711E-01-3.63115E+00
 -1        22-9.79815E-01-5.71881E+00-1.73484E+00 1.49791E+00 6.14201E-01-1.14349E+00
 -1        23-7.46194E+00 3.11028E+00 3.19603E+00 7.91344E-01-5.36373E-01 2.18395E+00
 -1        24-7.02205E+00-2.77640E-01 8.95056E-01 6.60791E-02-7.36008E-02-2.31087E+00
 -1        25-6.84966E-01-1.48670E+00-7.97402E+00 1.09238E+00 6.49806E-01-2.10047E+00
 -1        26-5.72897E-01-3.37200E+00-1.21821E+01-3.64044E+00-5.81064E-02 4.38003E+00
 -1        27 5.96620E+00-5.86073E+00-4.40835E+00-3.63585E-01 4.06323E-02-1.64121E+00
 -1        28 4.83860E+00-1.06132E+01-7.26054E+00-4.90239E-01-3.02204E-01 4.01161E+00
 -1        29 8.55682E+00 3.33856E+00 6.95229E+00-1.72002E+00-4.64777E-01-1.11084E+00
 -1        30 5.87618E+00 5.63743E+00 9.72604E+00 1.36675E+00-2.62581E-01-3.34760E-01
 -1        31 5.70001E+00 1.09409E+00 1.66079E+00 1.07095E+00-3.68881E-01 5.63362E-02
 -1        32-7.62835E+00 2.64899E-01 5.14871E+00-1.74312E+00-7.41475E-01 2.04166E+00
 -1        33-7.82144E+00-1.82595E+00 1.05997E+00 2.25372E+00-3.56047E-01-2.68511E+00
 -1        34-7.71689E+00 4.20388E+00 1.72263E+00-2.17505E-01-2.26613E-02-7.51589E-01
 -1        35-4.57824E+00 2.19988E+00 1.25083E-01-2.49553E+00-3.94055E-01 2.65598E+00
 -1        36-4.65890E+00-5.13803E-01-3.00422E+00 2.39365E+00-1.26048E-03-3.09110E+00
 -1        37-9.67212E+00 1.64390E+00 2.86591E+00 1.22107E+00-5.73889E-02 5.58364E-01
 -1        38 5.64550E+00 3.19215E+00 5.53359E-01 5.03427E-01-3.96327E-01 1.19119E+00
 -1        39 2.32065E+00-4.96748E-02-2.55335E+00 1.42034E-01 2.63329E-02-2.11981E+00
 -1        40 4.72780E+00 6.63276E+00 6.38430E+00 5.43015E-02 3.64721E-01-2.71674E-01
 -1        41 3.42224E+00-4.41882E+00-6.34797E+00 6.54383E-01 5.98053E-01-1.22851E+00
 -1        42 1.81794E+00-1.15153E+01-1.46074E+01-3.31264E+00 1.09941E-01 4.59754E+00
 -1        43 5.17303E+00 4.55433E+00 7.45457E+00 2.17985E-01-3.71126E-01 6.98309E-02
 -1        44 2.18627E+00 1.35355E+00 6.01844E-01-1.68734E+00-6.42742E-01 2.03225E+00
 -1        45-1.60354E-01-1.71404E+00-2.06665E+00 1.85062E+00-1.49308E-01-2.57735E+00
 -3
    1PSTEP                       103          26           1          
  100CL  126 26.00000000          45                     0   26           1
 -4  TOSTRAIN    6    1
 -5  EXX         1    4    1    1
 -5  EYY         1    4    2    2
 -5  EZZ         1    4    3    3
 -5  EXY         1    4    1    2
 -5  EYZ         1    4    2    3
 -5  EZX         1    4    3    1
 -1         1-6.76673E-03-6.57705E-03-4.33380E-03 9.86007E-04 6.55305E-04-1.37877E-03
 -1         2-5.69801E-03-5.96538E-03-6.57851E-03 5.20819E-04 6.85199E-05 2.19162E-05
 -1         3-5.47147E-03-7.64175E-03-3.69778E-03-3.27196E-04 2.17194E-05-4.74044E-04
 -1         4-2.14993E-03-7.64607E-03-6.55322E-03-2.90600E-04 1.73123E-05 5.35856E-04
 -1         5-1.10769E-02-4.03995E-03 2.57581E-02-6.61066E-03 7.11875E-04 1.00476E-02
 -1         6-8.92153E-03-1.47397E-02 3.49045E-03-8.93476E-03 5.17866E-04 5.83819E-03
 -1         7-7.06775E-03-1.88245E-02 1.94297E-02-4.32559E-03-1.10579E-03 1.23721E-02
 -1         8-2.99234E-03-1.95784E-02 2.55964E-03-4.24179E-04-5.51062E-07 2.11864E-03
 -1         9-3.30295E-02-2.71973E-02-1.90801E-02 2.99342E-03-4.72568E-04-8.04326E-04
 -1        10-2.24290E-02-2.78505E-02-1.92517E-02 7.21850E-04-7.97269E-04-1.08547E-03
 -1        11-3.97831E-02-2.90259E-02-2.56384E-02 1.20235E-03-8.83280E-04-1.67933E-03
 -1        12-3.46516E-02-2.57351E-02-2.58652E-02 3.51423E-04 3.59269E-04-2.00990E-03
 -1        13-5.19275E-03-1.38067E-02 3.83665E-03-3.43719E-03 2.67356E-03 3.91027E-03
 -1        14-3.05053E-02-2.79053E-02-8.62407E-03-6.63867E-03-1.68257E-03-1.93187E-03
 -1        15-1.78220E-02-1.67922E-02-1.25035E-02 2.67246E-03-3.98990E-04-5.87189E-04
 -1        16-4.39807E-03-6.73774E-03-6.71520E-03 4.29130E-04 1.44638E-04 8.92437E-04
 -1        17-1.89323E-02-2.52059E-02-1.12025E-02-4.73831E-04-5.29070E-04-3.93908E-03
 -1        18-1.30782E-02-1.70956E-02-1.23222E-02 6.29470E-04-1.34105E-04 6.30206E-04
 -1        19-5.05923E-03-1.17614E-02 2.50906E-02-7.31443E-03-4.05208E-04 1.20883E-02
 -1        20-4.05217E-02-2.08369E-02-5.34096E-03-2.97464E-04 2.53494E-04 3.83061E-04
 -1        21-2.04486E-02-1.59053E-02-1.18848E-02 3.23195E-03-1.94038E-04-4.03599E-03
 -1        22-5.91054E-03-7.70408E-03-3.81786E-03 6.21086E-04 5.45226E-04-3.32920E-04
 -1        23-3.35079E-02-2.26741E-02-8.44021E-03 1.75029E-03-1.30296E-03 4.53392E-03
 -1        24-1.94941E-02-1.62472E-02-1.23231E-02 1.29087E-04 6.03384E-06-2.60151E-03
 -1        25-5.56721E-03-6.01238E-03-6.30557E-03 2.41015E-04 5.75437E-04-1.09263E-03
 -1        26-2.86094E-03-4.75960E-03 1.49304E-02-9.28376E-03-3.10091E-04 1.16720E-02
 -1        27-2.85906E-03-7.70513E-03-5.33447E-03-6.74114E-04 4.95549E-05-6.43725E-04
 -1        28-2.77244E-03-1.90369E-02 1.27343E-02-2.00039E-03-9.98808E-04 1.04336E-02
 -1        29-2.19605E-02-2.57491E-02-8.97306E-03-3.61480E-03-7.35098E-04-1.80923E-03
 -1        30-2.60040E-02-2.66052E-02-1.94290E-02 2.90500E-03-3.07150E-04-5.83662E-04
 -1        31-1.35369E-02-1.64588E-02-1.28525E-02 7.95481E-04-3.62894E-04 1.45168E-04
 -1        32-3.34322E-02-2.61242E-02-7.11963E-03-2.75283E-03-1.52029E-03 3.92940E-03
 -1        33-1.97660E-02-1.68586E-02-1.20917E-02 2.45950E-03-2.54268E-04-2.98590E-03
 -1        34-3.57698E-02-2.67922E-02-2.54011E-02-5.27224E-04 2.08470E-05-1.74440E-03
 -1        35-2.99828E-02-2.40882E-02-1.33298E-02-4.34068E-03-8.14963E-04 4.58773E-03
 -1        36-1.81056E-02-1.61270E-02-1.44272E-02 2.41676E-03 9.50142E-05-3.57477E-03
 -1        37-3.43723E-02-2.68664E-02-2.19217E-02 2.57343E-03-8.10074E-05 9.99848E-04
 -1        38-2.15040E-02-2.48558E-02-1.38110E-02 8.19374E-04-9.20446E-04 2.02924E-03
 -1        39-1.56533E-02-1.64933E-02-1.45102E-02 2.00468E-04 1.21730E-04-2.51051E-03
 -1        40-2.70004E-02-2.57324E-02-2.12744E-02 1.40565E-04 5.74333E-04-3.93452E-04
 -1        41-4.31989E-03-7.29014E-03-5.78778E-03-2.72010E-05 4.65867E-04-4.73709E-04
 -1        42 1.82750E-03-1.36932E-02 1.29135E-02-8.71672E-03-1.46415E-04 1.23733E-02
 -1        43-2.75275E-02-2.80689E-02-2.19006E-02 5.79287E-04-6.27812E-04 4.32173E-04
 -1        44-2.40995E-02-2.54487E-02-1.31164E-02-2.48891E-03-1.28775E-03 3.24679E-03
 -1        45-1.65924E-02-1.70561E-02-1.39291E-02 2.08672E-03-6.29238E-05-3.12989E-03
 -3
    1PSTEP                       104          26           1          
  100CL  126 26.00000000          45                     0   26           1
 -4  ERROR       1    1
 -5  STR(%)      1    1    0    0
 -1         1 1.31546E+01
 -1         2 2.67529E+01
 -1         3 1.83708E+01
 -1         4 2.67529E+01
 -1         5 9.71043E+00
 -1         6 2.56098E+01
 -1         7 2.47030E+01
 -1         8 2.56098E+01
 -1         9 2.43787E+01
 -1        10 2.67529E+01
 -1        11 2.67529E+01
 -1        12 2.12991E+01
 -1        13 2.56098E+01
 -1        14 2.49943E+01
 -1        15 2.55658E+01
 -1        16 2.67529E+01
 -1        17 2.61814E+01
 -1        18 2.67529E+01
 -1        19 1.72067E+01
 -1        20 1.82317E+01
 -1        21 1.99537E+01
 -1        22 1.57627E+01
 -1        23 2.30011E+01
 -1        24 1.98350E+01
 -1        25 1.99537E+01
 -1        26 1.76601E+01
 -1        27 2.25619E+01
 -1        28 2.51564E+01
 -1        29 2.61814E+01
 -1        30 2.55658E+01
 -1        31 2.67529E+01
 -1        32 2.57280E+01
 -1        33 2.25619E+01
 -1        34 2.40260E+01
 -1        35 2.61814E+01
 -1        36 2.67529E+01
 -1        37 2.55658E+01
 -1        38 2.34545E+01
 -1        39 2.40260E+01
 -1        40 2.40260E+01
 -1        41 1.99537E+01
 -1        42 2.51564E+01
 -1        43 2.67529E+01
 -1        44 2.61814E+01
 -1        45 2.67529E+01
 -3
    1PSTEP                       105          27           1          
  100CL  127 27.00000000          45                     0   27           1
 -4  DISP        4    1
 -5  D1          1    2    1    0
 -5  D2          1    2    2    0
 -5  D3          1    2    3    0
 -5  ALL         1    2    0    0    1ALL
 -1         1-4.98608E+00-4.36466E+00 3.72964E+00
 -1         2-4.17603E+00-3.80892E+00 0.00000E+00
 -1         3-2.49443E+00 0.00000E+00 3.17252E+00
 -1         4 0.00000E+00 0.00000E+00 0.00000E+00
 -1         5 2.65862E+01-3.62516E+00-1.09890E+01
 -1         6 2.02838E+01-4.73835E+00 0.00000E+00
 -1         7 2.45308E+01 0.00000E+00-9.79787E+00
 -1         8 1.51305E+01 0.00000E+00 0.00000E+00
 -1         9 5.29253E+00-1.36364E+01 0.00000E+00
 -1        10 6.71244E+00 0.00000E+00 0.00000E+00
 -1        11 5.95669E+00-1.37538E+01 1.11792E+01
 -1        12 7.88038E+00 0.00000E+00 1.08236E+01
 -1        13 1.64453E+01-2.56965E+00 0.00000E+00
 -1        14 1.37996E+01-1.25589E+01 0.00000E+00
 -1        15-1.00337E+00-8.87622E+00 0.00000E+00
 -1        16-8.88199E-01-2.04524E+00 0.00000E+00
 -1        17 1.21927E+01 0.00000E+00 0.00000E+00
 -1        18 2.27041E+00 0.00000E+00 0.00000E+00
 -1        19 2.28063E+01-2.90149E+00-1.07942E+01
 -1        20 2.06225E+01-1.12894E+01 3.92566E+00
 -1        21-1.30710E+00-8.59411E+00 6.92697E+00
 -1        22-3.00980E+00-2.30547E+00 3.42438E+00
 -1        23 1.81691E+01 0.00000E+00 4.80905E+00
 -1        24 9.37682E-01 0.00000E+00 7.05931E+00
 -1        25-4.08374E+00-4.10096E+00 2.09327E+00
 -1        26 1.84555E+01-3.81190E+00-3.97951E+00
 -1        27-1.62701E-01 0.00000E+00 1.81991E+00
 -1        28 1.65327E+01 0.00000E+00-4.30453E+00
 -1        29 1.25795E+01-5.90452E+00 0.00000E+00
 -1        30 6.56214E+00-6.73283E+00 0.00000E+00
 -1        31 1.80575E+00-4.53400E+00 0.00000E+00
 -1        32 1.85521E+01-5.43932E+00 4.07820E+00
 -1        33 4.23957E-01-4.40730E+00 7.04692E+00
 -1        34 7.49386E+00-6.72455E+00 1.10121E+01
 -1        35 1.47993E+01-1.17867E+01 1.86736E+00
 -1        36-7.41944E-01-8.80353E+00 3.68591E+00
 -1        37 5.67601E+00-1.35318E+01 5.18575E+00
 -1        38 1.37545E+01 0.00000E+00 2.81354E+00
 -1        39 2.22361E+00 0.00000E+00 3.58511E+00
 -1        40 7.33346E+00 0.00000E+00 4.97581E+00
 -1        41-1.22149E+00-2.27178E+00 2.04234E+00
 -1        42 1.58670E+01-2.88777E+00-3.96935E+00
 -1        43 6.83453E+00-6.71946E+00 5.28746E+00
 -1        44 1.36364E+01-6.04890E+00 2.29314E+00
 -1        45 1.74941E+00-4.47921E+00 3.63527E+00
 -3
    1PSTEP                       106          27           1          
  100CL  127 27.00000000          45                     0   27           1
 -4  STRESS      6    1
 -5  SXX         1    4    1    1
 -5  SYY         1    4    2    2
 -5  SZZ         1    4    3    3
 -5  SXY         1    4    1    2
 -5  SYZ         1    4    2    3
 -5  SZX         1    4    3    1
 -1         1-3.30817E+00-2.48714E+00-2.95190E+00 2.07732E+00 8.16200E-01-2.43921E+00
 -1         2-1.62417E+00-2.46703E+00-8.82756E+00 1.69557E+00 1.75378E-01-5.65430E-01
 -1         3-1.06228E+00-6.82389E+00-1.36229E+00 8.56060E-02 1.49244E-03-1.69769E+00
 -1         4 9.25538E+00-5.51593E+00-8.08237E+00 3.21268E-02 1.11024E-01-4.17211E-02
 -1         5-6.73189E+00-2.46697E+00-3.69221E+00-2.74543E+00 2.72812E-01 3.97319E+00
 -1         6 1.37247E-01-5.37832E+00-1.36851E+01-4.07627E+00 3.99041E-01 2.14870E+00
 -1         7-1.05842E+00-1.33121E+01-4.89016E+00-1.58502E+00-3.00696E-01 5.12545E+00
 -1         8 1.11757E+01-6.11666E+00-9.72963E+00 2.04211E-01 9.42916E-02 4.06822E-01
 -1         9-7.68927E+00 2.58270E+00 8.67967E+00 1.57344E+00-3.93233E-01-4.09250E-01
 -1        10 1.60642E+01 8.10419E+00 1.45612E+01 3.29415E-01-6.14805E-01-6.34799E-01
 -1        11-1.03202E+01 5.02132E+00 6.29368E+00 6.52195E-01-6.66073E-01-9.42782E-01
 -1        12-6.29268E+00 6.96690E+00 1.80135E+00 1.54691E-01 1.91571E-01-9.13049E-01
 -1        13 2.96177E-01-7.41626E+00-1.73072E+01-1.27012E+00 1.39482E+00 1.26867E+00
 -1        14-3.98042E+00-7.58469E-02 6.62591E+00-3.91834E+00-8.71593E-01-1.03829E+00
 -1        15-4.13209E+00-1.60831E+00 8.12118E-01 3.00093E+00-4.92948E-01-4.94944E-01
 -1        16 2.62892E+00-3.83529E+00-1.01338E+01 1.13793E+00 4.28154E-01 4.76384E-01
 -1        17 1.20702E+01 4.10878E+00 5.73597E+00-2.49904E-01-3.66933E-01-2.35404E+00
 -1        18 8.12735E+00 3.27223E-01 2.60778E+00 7.44953E-01-2.17293E-01 7.66298E-01
 -1        19-1.76730E+00-9.49618E+00-4.56786E+00-3.01308E+00-6.07139E-02 4.85434E+00
 -1        20-1.51103E+01 5.42846E+00 7.42844E+00-5.83424E-01-8.06414E-02 4.34622E-01
 -1        21-1.01230E+01 1.10928E+00 2.58202E+00 3.43233E+00-3.33750E-01-3.90688E+00
 -1        22-1.09165E+00-6.28553E+00-1.92736E+00 1.64868E+00 6.64762E-01-1.26715E+00
 -1        23-8.01896E+00 3.28859E+00 3.41179E+00 8.40100E-01-5.65105E-01 2.36501E+00
 -1        24-7.60455E+00-2.51755E-01 9.97827E-01 6.41544E-02-8.25608E-02-2.49028E+00
 -1        25-7.87785E-01-1.67974E+00-8.69841E+00 1.21776E+00 7.01793E-01-2.29905E+00
 -1        26-5.78189E-01-3.59397E+00-1.29862E+01-3.87963E+00-5.95024E-02 4.65619E+00
 -1        27 6.45279E+00-6.44425E+00-4.78692E+00-3.82172E-01 4.36266E-02-1.80945E+00
 -1        28 5.19764E+00-1.14232E+01-7.78835E+00-5.06243E-01-3.13876E-01 4.27287E+00
 -1        29 9.20000E+00 3.55317E+00 7.39206E+00-1.85315E+00-4.94920E-01-1.19234E+00
 -1        30 6.33465E+00 6.14037E+00 1.05496E+01 1.43680E+00-2.85908E-01-3.57416E-01
 -1        31 6.19880E+00 1.22084E+00 1.86362E+00 1.16818E+00-4.02855E-01 6.54426E-02
 -1        32-8.19508E+00 2.32792E-01 5.46925E+00-1.89979E+00-7.89324E-01 2.21587E+00
 -1        33-8.47618E+00-1.94195E+00 1.16814E+00 2.43546E+00-3.93135E-01-2.89791E+00
 -1        34-8.30825E+00 4.58582E+00 1.87517E+00-2.43398E-01-2.55881E-02-7.70073E-01
 -1        35-4.94288E+00 2.31468E+00 6.36081E-02-2.71139E+00-4.15894E-01 2.87700E+00
 -1        36-5.06013E+00-5.41176E-01-3.20082E+00 2.59742E+00-6.25521E-03-3.33438E+00
 -1        37-1.04881E+01 1.80262E+00 3.12529E+00 1.27522E+00-6.15740E-02 6.13979E-01
 -1        38 6.02841E+00 3.36246E+00 5.10442E-01 5.40700E-01-4.21897E-01 1.30141E+00
 -1        39 2.55859E+00 7.43710E-03-2.72313E+00 1.45944E-01 2.28587E-02-2.27967E+00
 -1        40 5.11640E+00 7.23007E+00 6.92450E+00 5.67067E-02 3.93168E-01-2.78071E-01
 -1        41 3.71256E+00-4.85901E+00-6.92544E+00 7.33553E-01 6.51405E-01-1.35200E+00
 -1        42 1.98001E+00-1.22848E+01-1.55595E+01-3.52016E+00 1.28423E-01 4.88572E+00
 -1        43 5.60224E+00 4.95907E+00 8.08143E+00 2.15142E-01-4.03319E-01 8.23359E-02
 -1        44 2.33495E+00 1.37807E+00 5.65408E-01-1.83933E+00-6.86991E-01 2.20851E+00
 -1        45-1.48034E-01-1.81840E+00-2.20204E+00 1.99859E+00-1.67074E-01-2.77332E+00
 -3
    1PSTEP                       107          27           1          
  100CL  127 27.00000000          45                     0   27           1
 -4  TOSTRAIN    6    1
 -5  EXX         1    4    1    1
 -5  EYY         1    4    2    2
 -5  EZZ         1    4    3    3
 -5  EXY         1    4    1    2
 -5  EYZ         1    4    2    3
 -5  EZX         1    4    3    1
 -1         1-7.56128E-03-7.37977E-03-5.17137E-03 1.20052E-03 7.50732E-04-1.62141E-03
 -1         2-6.48601E-03-6.81583E-03-7.84806E-03 7.03470E-04 9.42606E-05-6.58886E-06
 -1         3-6.15804E-03-8.73244E-03-4.47571E-03-3.42472E-04 2.26019E-05-6.50774E-04
 -1         4-2.32068E-03-8.71687E-03-7.81293E-03-3.12887E-04 3.28237E-05 5.78828E-04
 -1         5-6.43733E-03 1.46111E-03 3.40980E-02-7.42305E-03 7.77940E-04 1.11954E-02
 -1         6-3.93358E-03-1.04624E-02 9.21405E-03-1.00619E-02 6.15652E-04 6.53540E-03
 -1         7-1.80183E-03-1.51978E-02 2.71075E-02-4.84162E-03-1.18805E-03 1.38194E-02
 -1         8 2.87193E-03-1.59818E-02 8.20839E-03-4.44379E-04 6.80484E-06 2.32926E-03
 -1         9-3.47453E-02-2.79556E-02-1.91275E-02 3.24666E-03-5.35898E-04-8.69777E-04
 -1        10-2.25811E-02-2.86813E-02-1.93471E-02 7.90628E-04-9.19740E-04-1.21004E-03
 -1        11-4.22458E-02-3.00396E-02-2.65493E-02 1.26568E-03-1.00769E-03-1.79384E-03
 -1        12-3.64361E-02-2.62886E-02-2.68196E-02 3.77598E-04 3.98284E-04-2.14536E-03
 -1        13 3.03461E-04-9.47649E-03 9.60812E-03-3.86522E-03 3.00309E-03 4.35343E-03
 -1        14-2.99224E-02-2.69586E-02-5.85394E-03-7.55933E-03-1.87102E-03-2.10232E-03
 -1        15-1.89748E-02-1.77101E-02-1.31281E-02 3.10960E-03-4.72031E-04-6.25641E-04
 -1        16-4.90857E-03-7.61767E-03-8.00460E-03 5.37562E-04 2.08089E-04 9.79100E-04
 -1        17-1.68023E-02-2.39926E-02-8.73693E-03-5.30320E-04-6.00069E-04-4.41770E-03
 -1        18-1.34516E-02-1.79929E-02-1.29643E-02 7.23841E-04-1.68991E-04 7.65969E-04
 -1        19 3.86773E-04-7.25019E-03 3.33592E-02-8.19949E-03-4.23990E-04 1.34935E-02
 -1        20-4.11765E-02-1.90445E-02-2.17325E-03-4.63109E-04 2.41490E-04 5.18623E-04
 -1        21-2.19293E-02-1.66253E-02-1.24400E-02 3.68087E-03-2.53490E-04-4.53545E-03
 -1        22-6.57843E-03-8.72918E-03-4.59347E-03 7.88285E-04 6.24498E-04-4.56933E-04
 -1        23-3.32341E-02-2.11476E-02-5.60433E-03 1.91658E-03-1.44032E-03 5.15517E-03
 -1        24-2.07910E-02-1.70196E-02-1.29620E-02 1.23178E-04-3.41176E-06-2.92554E-03
 -1        25-6.20985E-03-6.75348E-03-7.45917E-03 3.67715E-04 6.57612E-04-1.32459E-03
 -1        26 2.77417E-03 6.59269E-04 2.19780E-02-1.04255E-02-3.32066E-04 1.30138E-02
 -1        27-3.13467E-03-8.80889E-03-6.34493E-03-7.40534E-04 5.57112E-05-8.29314E-04
 -1        28 3.04420E-03-1.53989E-02 1.95958E-02-2.22089E-03-1.09385E-03 1.16219E-02
 -1        29-2.02452E-02-2.45458E-02-6.26079E-03-4.09118E-03-8.23603E-04-2.01130E-03
 -1        30-2.66905E-02-2.72726E-02-1.95343E-02 3.16755E-03-3.53391E-04-6.47572E-04
 -1        31-1.39768E-02-1.72999E-02-1.35349E-02 9.36881E-04-4.25909E-04 1.81539E-04
 -1        32-3.31437E-02-2.50492E-02-4.14577E-03-3.19569E-03-1.68767E-03 4.49782E-03
 -1        33-2.11236E-02-1.77391E-02-1.27119E-02 2.80433E-03-3.13555E-04-3.37281E-03
 -1        34-3.76868E-02-2.75074E-02-2.63003E-02-6.16313E-04 1.99013E-05-1.84624E-03
 -1        35-2.93198E-02-2.26845E-02-1.11544E-02-5.00250E-03-8.92755E-04 5.22859E-03
 -1        36-1.92562E-02-1.69377E-02-1.53288E-02 2.77872E-03 9.22789E-05-4.04557E-03
 -1        37-3.62199E-02-2.75906E-02-2.23582E-02 2.77063E-03-8.59977E-05 1.14475E-03
 -1        38-1.97432E-02-2.35859E-02-1.16788E-02 9.14473E-04-1.01944E-03 2.33285E-03
 -1        39-1.63638E-02-1.73072E-02-1.54578E-02 2.02234E-04 1.21671E-04-2.81556E-03
 -1        40-2.77698E-02-2.62682E-02-2.16471E-02 1.52769E-04 6.44670E-04-4.03471E-04
 -1        41-4.72329E-03-8.23707E-03-6.85905E-03 3.99060E-05 5.46115E-04-6.00830E-04
 -1        42 8.08172E-03-9.40052E-03 1.97471E-02-9.76927E-03-1.13697E-04 1.38076E-02
 -1        43-2.83753E-02-2.89495E-02-2.23426E-02 5.99677E-04-7.13215E-04 5.00203E-04
 -1        44-2.26326E-02-2.42788E-02-1.09063E-02-2.87550E-03-1.42983E-03 3.71192E-03
 -1        45-1.74700E-02-1.79755E-02-1.47950E-02 2.37641E-03-8.95115E-05-3.51706E-03
 -3
    1PSTEP                       108          27           1          
  100CL  127 27.00000000          45                     0   27           1
 -4  ERROR       1    1
 -5  STR(%)      1    1    0    0
 -1         1 1.29879E+01
 -1         2 2.67292E+01
 -1         3 1.84027E+01
 -1         4 2.67292E+01
 -1         5 9.87978E+00
 -1         6 2.57375E+01
 -1         7 2.45625E+01
 -1         8 2.57375E+01
 -1         9 2.43127E+01
 -1        10 2.67292E+01
 -1        11 2.67292E+01
 -1        12 2.10805E+01
 -1        13 2.57375E+01
 -1        14 2.50251E+01
 -1        15 2.55209E+01
 -1        16 2.67292E+01
 -1        17 2.62333E+01
 -1        18 2.67292E+01
 -1        19 1.72211E+01
 -1        20 1.83045E+01
 -1        21 1.98585E+01
 -1        22 1.56953E+01
 -1        23 2.28215E+01
 -1        24 1.97416E+01
 -1        25 1.98585E+01
 -1        26 1.78086E+01
 -1        27 2.25659E+01
 -1        28 2.51500E+01
 -1        29 2.62333E+01
 -1        30 2.55209E+01
 -1        31 2.67292E+01
 -1        32 2.56458E+01
 -1        33 2.25659E+01
 -1        34 2.39048E+01
 -1        35 2.62333E+01
 -1        36 2.67292E+01
 -1        37 2.55209E+01
 -1        38 2.34090E+01
 -1        39 2.39048E+01
 -1        40 2.39048E+01
 -1        41 1.98585E+01
 -1        42 2.51500E+01
 -1        43 2.67292E+01
 -1        44 2.62333E+01
 -1        45 2.67292E+01
 -3
    1PSTEP                       109          28           1          
  100CL  128 28.00000000          45                     0   28           1
 -4  DISP        4    1
 -5  D1          1    2    1    0
 -5  D2          1    2    2    0
 -5  D3          1    2    3    0
 -5  ALL         1    2    0    0    1ALL
 -1         1-4.25014E+00-4.88301E+00 4.31439E+00
 -1         2-4.02497E+00-4.25097E+00 0.00000E+00
 -1         3-2.16080E+00 0.00000E+00 3.68192E+00
 -1         4 0.00000E+00 0.00000E+00 0.00000E+00
 -1         5 2.83288E+01-1.15572E+00-1.47974E+01
 -1         6 2.06173E+01-2.36375E+00 0.00000E+00
 -1         7 2.52850E+01 0.00000E+00-1.35093E+01
 -1         8 1.40886E+01 0.00000E+00 0.00000E+00
 -1         9 6.01336E+00-1.39317E+01 0.00000E+00
 -1        10 6.87233E+00 0.00000E+00 0.00000E+00
 -1        11 7.43329E+00-1.40743E+01 1.13496E+01
 -1        12 8.85850E+00 0.00000E+00 1.09609E+01
 -1        13 1.57594E+01-1.41310E+00 0.00000E+00
 -1        14 1.46755E+01-1.18903E+01 0.00000E+00
 -1        15-5.97661E-01-9.31243E+00 0.00000E+00
 -1        16-8.25568E-01-2.28505E+00 0.00000E+00
 -1        17 1.21190E+01 0.00000E+00 0.00000E+00
 -1        18 2.37831E+00 0.00000E+00 0.00000E+00
 -1        19 2.35438E+01-1.79792E+00-1.45867E+01
 -1        20 2.29328E+01-1.04927E+01 2.50652E+00
 -1        21-2.87146E-01-8.97690E+00 7.26553E+00
 -1        22-2.54708E+00-2.58646E+00 3.96838E+00
 -1        23 1.94853E+01 0.00000E+00 3.47932E+00
 -1        24 1.53673E+00 0.00000E+00 7.43389E+00
 -1        25-3.73062E+00-4.58108E+00 2.41883E+00
 -1        26 1.87582E+01-1.35763E+00-5.71267E+00
 -1        27-1.72462E-02 0.00000E+00 2.10519E+00
 -1        28 1.58379E+01 0.00000E+00-6.08610E+00
 -1        29 1.27348E+01-5.53616E+00 0.00000E+00
 -1        30 6.87756E+00-6.86847E+00 0.00000E+00
 -1        31 2.03218E+00-4.75907E+00 0.00000E+00
 -1        32 2.00722E+01-5.02170E+00 2.67605E+00
 -1        33 1.13757E+00-4.61293E+00 7.41452E+00
 -1        34 8.60332E+00-6.86348E+00 1.11679E+01
 -1        35 1.59350E+01-1.10440E+01 1.15073E+00
 -1        36-1.44511E-01-9.22415E+00 3.88141E+00
 -1        37 6.60247E+00-1.38167E+01 5.21969E+00
 -1        38 1.40310E+01 0.00000E+00 2.19751E+00
 -1        39 2.48786E+00 0.00000E+00 3.78057E+00
 -1        40 7.73030E+00 0.00000E+00 4.99011E+00
 -1        41-1.01976E+00-2.54875E+00 2.36293E+00
 -1        42 1.52995E+01-1.77752E+00-5.70548E+00
 -1        43 7.35557E+00-6.85353E+00 5.33678E+00
 -1        44 1.40803E+01-5.69840E+00 1.62348E+00
 -1        45 2.13229E+00-4.69583E+00 3.82855E+00
 -3
    1PSTEP                       110          28           1          
  100CL  128 28.00000000          45                     0   28           1
 -4  STRESS      6    1
 -5  SXX         1    4    1    1
 -5  SYY         1    4    2    2
 -5  SZZ         1    4    3    3
 -5  SXY         1    4    1    2
 -5  SYZ         1    4    2    3
 -5  SZX         1    4    3    1
 -1         1-3.57964E+00-2.71911E+00-3.20929E+00 2.26159E+00 8.77276E-01-2.64280E+00
 -1         2-1.77776E+00-2.70070E+00-9.52625E+00 1.86277E+00 1.95103E-01-6.18666E-01
 -1         3-1.19008E+00-7.44750E+00-1.48758E+00 1.03638E-01 1.12244E-03-1.86737E+00
 -1         4 1.00059E+01-5.97927E+00-8.73285E+00 4.12900E-02 1.23963E-01-5.62537E-02
 -1         5-7.13094E+00-2.61965E+00-3.91467E+00-2.90960E+00 2.83961E-01 4.20728E+00
 -1         6 1.24836E-01-5.77205E+00-1.46507E+01-4.33682E+00 4.40335E-01 2.26749E+00
 -1         7-1.10106E+00-1.42119E+01-5.18950E+00-1.66390E+00-3.03918E-01 5.43666E+00
 -1         8 1.19023E+01-6.65322E+00-1.05016E+01 2.34512E-01 1.04785E-01 4.17445E-01
 -1         9-8.33589E+00 2.80942E+00 9.37805E+00 1.64590E+00-4.23261E-01-4.25192E-01
 -1        10 1.72847E+01 8.77294E+00 1.56925E+01 3.42027E-01-6.66281E-01-6.77784E-01
 -1        11-1.10735E+01 5.39710E+00 6.73913E+00 6.63770E-01-7.18945E-01-9.70951E-01
 -1        12-6.74598E+00 7.54782E+00 1.96393E+00 1.60236E-01 2.03744E-01-9.36396E-01
 -1        13 2.97979E-01-7.93937E+00-1.84897E+01-1.33853E+00 1.49374E+00 1.33176E+00
 -1        14-4.33356E+00-1.38727E-01 6.97910E+00-4.22324E+00-9.19410E-01-1.09450E+00
 -1        15-4.49373E+00-1.72306E+00 9.45283E-01 3.25431E+00-5.36182E-01-5.17350E-01
 -1        16 2.81138E+00-4.17388E+00-1.09885E+01 1.24149E+00 4.76027E-01 4.97792E-01
 -1        17 1.29038E+01 4.32261E+00 6.06490E+00-2.68913E-01-3.93700E-01-2.51689E+00
 -1        18 8.77917E+00 4.14749E-01 2.85372E+00 8.02935E-01-2.38818E-01 8.40249E-01
 -1        19-1.82615E+00-1.00862E+01-4.83687E+00-3.18641E+00-5.87866E-02 5.14272E+00
 -1        20-1.61592E+01 5.73945E+00 7.85473E+00-6.63233E-01-9.21630E-02 4.97337E-01
 -1        21-1.08995E+01 1.26206E+00 2.83967E+00 3.68956E+00-3.70934E-01-4.18369E+00
 -1        22-1.20718E+00-6.86049E+00-2.12461E+00 1.80186E+00 7.15780E-01-1.39398E+00
 -1        23-8.57574E+00 3.45880E+00 3.62782E+00 8.87981E-01-5.91160E-01 2.54867E+00
 -1        24-8.19505E+00-2.22435E-01 1.10311E+00 6.20394E-02-9.16683E-02-2.67106E+00
 -1        25-8.93918E-01-1.87770E+00-9.43369E+00 1.34599E+00 7.54016E-01-2.50073E+00
 -1        26-5.76024E-01-3.81023E+00-1.37719E+01-4.11154E+00-6.11787E-02 4.92353E+00
 -1        27 6.94293E+00-7.03669E+00-5.17053E+00-4.00087E-01 4.67195E-02-1.98155E+00
 -1        28 5.55237E+00-1.22332E+01-8.31462E+00-5.18384E-01-3.23418E-01 4.52982E+00
 -1        29 9.84362E+00 3.76317E+00 7.82076E+00-1.98729E+00-5.23125E-01-1.27410E+00
 -1        30 6.79530E+00 6.65188E+00 1.13885E+01 1.50410E+00-3.09794E-01-3.79993E-01
 -1        31 6.70325E+00 1.35092E+00 2.07336E+00 1.26641E+00-4.37470E-01 7.43561E-02
 -1        32-8.75847E+00 1.95710E-01 5.77924E+00-2.05887E+00-8.35529E-01 2.39239E+00
 -1        33-9.13796E+00-2.05681E+00 1.27868E+00 2.61753E+00-4.31043E-01-3.11233E+00
 -1        34-8.90259E+00 4.97511E+00 2.03132E+00-2.71303E-01-2.87084E-02-7.84732E-01
 -1        35-5.30500E+00 2.42083E+00-6.37196E-03-2.92955E+00-4.36432E-01 3.10099E+00
 -1        36-5.46453E+00-5.68469E-01-3.39642E+00 2.80277E+00-1.15773E-02-3.57849E+00
 -1        37-1.13099E+01 1.96533E+00 3.39367E+00 1.32668E+00-6.61594E-02 6.72903E-01
 -1        38 6.40576E+00 3.52258E+00 4.55301E-01 5.78116E-01-4.46969E-01 1.41546E+00
 -1        39 2.80017E+00 6.85747E-02-2.89296E+00 1.49874E-01 1.91396E-02-2.44019E+00
 -1        40 5.50662E+00 7.83859E+00 7.47465E+00 5.90094E-02 4.21926E-01-2.82447E-01
 -1        41 4.00579E+00-5.30575E+00-7.51185E+00 8.14403E-01 7.05295E-01-1.47813E+00
 -1        42 2.14435E+00-1.30344E+01-1.64884E+01-3.71884E+00 1.47430E-01 5.16356E+00
 -1        43 6.03601E+00 5.37068E+00 8.71967E+00 2.09872E-01-4.36170E-01 9.65873E-02
 -1        44 2.48084E+00 1.39127E+00 5.15425E-01-1.99440E+00-7.31113E-01 2.38852E+00
 -1        45-1.33480E-01-1.92151E+00-2.33674E+00 2.14669E+00-1.85309E-01-2.97004E+00
 -3
    1PSTEP                       111          28           1          
  100CL  128 28.00000000          45                     0   28           1
 -4  TOSTRAIN    6    1
 -5  EXX         1    4    1    1
 -5  EYY         1    4    2    2
 -5  EZZ         1    4    3    3
 -5  EXY         1    4    1    2
 -5  EYZ         1    4    2    3
 -5  EZX         1    4    3    1
 -1         1-8.35369E-03-8.18140E-03-6.00764E-03 1.42797E-03 8.50858E-04-1.87821E-03
 -1         2-7.27475E-03-7.67124E-03-9.14190E-03 8.98759E-04 1.21997E-04-3.76280E-05
 -1         3-6.83945E-03-9.84007E-03-5.24989E-03-3.57387E-04 2.36173E-05-8.40208E-04
 -1         4-2.45770E-03-9.80322E-03-9.09623E-03-3.35576E-04 4.95303E-05 6.22508E-04
 -1         5-1.37442E-03 7.44917E-03 4.30829E-02-8.28415E-03 8.45614E-04 1.24117E-02
 -1         6 1.52111E-03-5.76335E-03 1.54296E-02-1.12528E-02 7.22880E-04 7.27335E-03
 -1         7 3.93900E-03-1.11964E-02 3.53960E-02-5.38606E-03-1.27037E-03 1.53498E-02
 -1         8 9.25233E-03-1.20077E-02 1.43485E-02-4.66270E-04 1.52820E-05 2.55526E-03
 -1         9-3.64430E-02-2.86423E-02-1.90582E-02 3.50684E-03-6.02603E-04-9.36515E-04
 -1        10-2.26355E-02-2.94432E-02-1.93296E-02 8.61294E-04-1.04919E-03-1.34081E-03
 -1        11-4.47235E-02-3.09967E-02-2.73924E-02 1.32732E-03-1.13874E-03-1.90950E-03
 -1        12-3.82044E-02-2.67591E-02-2.77061E-02 4.04474E-04 4.39083E-04-2.28192E-03
 -1        13 6.29408E-03-4.72731E-03 1.58751E-02-4.31849E-03 3.35167E-03 4.82412E-03
 -1        14-2.91492E-02-2.58057E-02-2.78242E-03-8.53279E-03-2.06503E-03-2.27728E-03
 -1        15-2.01167E-02-1.86027E-02-1.37051E-02 3.57100E-03-5.49146E-04-6.64567E-04
 -1        16-5.40330E-03-8.50177E-03-9.31934E-03 6.52907E-04 2.76070E-04 1.06855E-03
 -1        17-1.44034E-02-2.25641E-02-5.98514E-03-5.90511E-04-6.74291E-04-4.91869E-03
 -1        18-1.37720E-02-1.88615E-02-1.35613E-02 8.23077E-04-2.06088E-04 9.09647E-04
 -1        19 6.30825E-03-2.31133E-03 4.22687E-02-9.13469E-03-4.43142E-04 1.49822E-02
 -1        20-4.17076E-02-1.70036E-02 1.32080E-03-6.45366E-04 2.29166E-04 6.69406E-04
 -1        21-2.34136E-02-1.73082E-02-1.29458E-02 4.15140E-03-3.16983E-04-5.05805E-03
 -1        22-7.23804E-03-9.76588E-03-5.36479E-03 9.66199E-04 7.07887E-04-5.89958E-04
 -1        23-3.27872E-02-1.93919E-02-2.45308E-03 2.08876E-03-1.58130E-03 5.81492E-03
 -1        24-2.20826E-02-1.77569E-02-1.35563E-02 1.16515E-04-1.35276E-05-3.26498E-03
 -1        25-6.84312E-03-7.49092E-03-8.62867E-03 5.03674E-04 7.43846E-04-1.57065E-03
 -1        26 8.89635E-03 6.55993E-03 2.95947E-02-1.16343E-02-3.55713E-04 1.44318E-02
 -1        27-3.38249E-03-9.93047E-03-7.36371E-03-8.09190E-04 6.22510E-05-1.02757E-03
 -1        28 9.36939E-03-1.13832E-02 2.70185E-02-2.45384E-03-1.19099E-03 1.28773E-02
 -1        29-1.82836E-02-2.31230E-02-3.25078E-03-4.59479E-03-9.13124E-04-2.22128E-03
 -1        30-2.73059E-02-2.78632E-02-1.95266E-02 3.43853E-03-4.02453E-04-7.14308E-04
 -1        31-1.43668E-02-1.81107E-02-1.41734E-02 1.08594E-03-4.92543E-04 2.19710E-04
 -1        32-3.26764E-02-2.37701E-02-8.55266E-04-3.66552E-03-1.86079E-03 5.10248E-03
 -1        33-2.24788E-02-1.85909E-02-1.32869E-02 3.16544E-03-3.76553E-04-3.77842E-03
 -1        34-3.95931E-02-2.81484E-02-2.71301E-02-7.12140E-04 1.88065E-05-1.94796E-03
 -1        35-2.84573E-02-2.10533E-02-8.71088E-03-5.70465E-03-9.71897E-04 5.90694E-03
 -1        36-2.03937E-02-1.77174E-02-1.61983E-02 3.15901E-03 8.89542E-05-4.53857E-03
 -1        37-3.80535E-02-2.82420E-02-2.26990E-02 2.97251E-03-9.15818E-05 1.29995E-03
 -1        38-1.77295E-02-2.20987E-02-9.27627E-03 1.01357E-03-1.12284E-03 2.65751E-03
 -1        39-1.70375E-02-1.80885E-02-1.63768E-02 2.03682E-04 1.21179E-04-3.13466E-03
 -1        40-2.84724E-02-2.67192E-02-2.19217E-02 1.65389E-04 7.18545E-04-4.11109E-04
 -1        41-5.10338E-03-9.19123E-03-7.94184E-03 1.12394E-04 6.30743E-04-7.36626E-04
 -1        42 1.48633E-02-4.69281E-03 2.71382E-02-1.08807E-02-7.71867E-05 1.53232E-02
 -1        43-2.91592E-02-2.97650E-02-2.26896E-02 6.17967E-04-8.03614E-04 5.73612E-04
 -1        44-2.09248E-02-2.28976E-02-8.42451E-03-3.28513E-03-1.57853E-03 4.20520E-03
 -1        45-1.83193E-02-1.88686E-02-1.56280E-02 2.67962E-03-1.17948E-04-3.92219E-03
 -3
    1PSTEP                       112          28           1          
  100CL  128 28.00000000          45                     0   28           1
 -4  ERROR       1    1
 -5  STR(%)      1    1    0    0
 -1         1 1.28344E+01
 -1         2 2.67068E+01
 -1         3 1.84298E+01
 -1         4 2.67068E+01
 -1         5 1.00456E+01
 -1         6 2.58708E+01
 -1         7 2.44318E+01
 -1         8 2.58708E+01
 -1         9 2.42523E+01
 -1        10 2.67068E+01
 -1        11 2.67068E+01
 -1        12 2.08583E+01
 -1        13 2.58708E+01
 -1        14 2.50616E+01
 -1        15 2.54796E+01
 -1        16 2.67068E+01
 -1        17 2.62888E+01
 -1        18 2.67068E+01
 -1        19 1.72387E+01
 -1        20 1.83762E+01
 -1        21 1.97706E+01
 -1        22 1.56321E+01
 -1        23 2.26450E+01
 -1        24 1.96440E+01
 -1        25 1.97706E+01
 -1        26 1.79582E+01
 -1        27 2.25683E+01
 -1        28 2.51513E+01
 -1        29 2.62888E+01
 -1        30 2.54796E+01
 -1        31 2.67068E+01
 -1        32 2.55693E+01
 -1        33 2.25683E+01
 -1        34 2.37825E+01
 -1        35 2.62888E+01
 -1        36 2.67068E+01
 -1        37 2.54796E+01
 -1        38 2.33645E+01
 -1        39 2.37825E+01
 -1        40 2.37825E+01
 -1        41 1.97706E+01
 -1        42 2.51513E+01
 -1        43 2.67068E+01
 -1        44 2.62888E+01
 -1        45 2.67068E+01
 -3
    1PSTEP                       113          29           1          
  100CL  129 29.00000000          45                     0   29           1
 -4  DISP        4    1
 -5  D1          1    2    1    0
 -5  D2          1    2    2    0
 -5  D3          1    2    3    0
 -5  ALL         1    2    0    0    1ALL
 -1         1-3.44579E+00-5.40693E+00 4.90684E+00
 -1         2-3.85065E+00-4.69500E+00 0.00000E+00
 -1         3-1.79430E+00 0.00000E+00 4.19530E+00
 -1         4 0.00000E+00 0.00000E+00 0.00000E+00
 -1         5 3.00785E+01 1.52659E+00-1.88896E+01
 -1         6 2.08725E+01 2.19079E-01 0.00000E+00
 -1         7 2.59820E+01 0.00000E+00-1.75005E+01
 -1         8 1.28863E+01 0.00000E+00 0.00000E+00
 -1         9 6.75181E+00-1.41885E+01 0.00000E+00
 -1        10 7.00620E+00 0.00000E+00 0.00000E+00
 -1        11 8.97950E+00-1.43574E+01 1.14717E+01
 -1        12 9.86654E+00 0.00000E+00 1.10489E+01
 -1        13 1.49341E+01-1.54499E-01 0.00000E+00
 -1        14 1.55443E+01-1.11147E+01 0.00000E+00
 -1        15-1.68949E-01-9.73489E+00 0.00000E+00
 -1        16-7.55909E-01-2.52670E+00 0.00000E+00
 -1        17 1.19766E+01 0.00000E+00 0.00000E+00
 -1        18 2.47828E+00 0.00000E+00 0.00000E+00
 -1        19 2.42261E+01-5.95556E-01-1.86622E+01
 -1        20 2.53181E+01-9.58594E+00 9.43442E-01
 -1        21 8.01240E-01-9.34301E+00 7.58312E+00
 -1        22-2.04086E+00-2.87137E+00 4.51813E+00
 -1        23 2.08156E+01 0.00000E+00 2.00730E+00
 -1        24 2.16842E+00 0.00000E+00 7.78978E+00
 -1        25-3.33989E+00-5.06493E+00 2.74990E+00
 -1        26 1.89836E+01 1.30854E+00-7.57792E+00
 -1        27 1.39482E-01 0.00000E+00 2.39392E+00
 -1        28 1.50020E+01 0.00000E+00-8.00286E+00
 -1        29 1.28358E+01-5.11308E+00 0.00000E+00
 -1        30 7.17790E+00-6.98421E+00 0.00000E+00
 -1        31 2.26028E+00-4.97743E+00 0.00000E+00
 -1        32 2.16189E+01-4.54827E+00 1.13022E+00
 -1        33 1.89323E+00-4.81079E+00 7.76294E+00
 -1        34 9.75277E+00-6.98266E+00 1.12750E+01
 -1        35 1.70782E+01-1.01934E+01 3.61776E-01
 -1        36 4.88829E-01-9.63016E+00 4.06753E+00
 -1        37 7.55977E+00-1.40625E+01 5.22694E+00
 -1        38 1.42586E+01 0.00000E+00 1.51357E+00
 -1        39 2.75580E+00 0.00000E+00 3.96704E+00
 -1        40 8.11621E+00 0.00000E+00 4.97706E+00
 -1        41-7.99597E-01-2.82950E+00 2.68887E+00
 -1        42 1.46008E+01-5.68074E-01-7.57388E+00
 -1        43 7.87566E+00-6.96740E+00 5.36032E+00
 -1        44 1.44871E+01-5.29498E+00 8.83670E-01
 -1        45 2.52848E+00-4.90528E+00 4.01248E+00
 -3
    1PSTEP                       114          29           1          
  100CL  129 29.00000000          45                     0   29           1
 -4  STRESS      6    1
 -5  SXX         1    4    1    1
 -5  SYY         1    4    2    2
 -5  SZZ         1    4    3    3
 -5  SXY         1    4    1    2
 -5  SYZ         1    4    2    3
 -5  SZX         1    4    3    1
 -1         1-3.85325E+00-2.95428E+00-3.47071E+00 2.44770E+00 9.38188E-01-2.84869E+00
 -1         2-1.93371E+00-2.93837E+00-1.02308E+01 2.03323E+00 2.15457E-01-6.72997E-01
 -1         3-1.32367E+00-8.07840E+00-1.61539E+00 1.22636E-01 8.83089E-04-2.04119E+00
 -1         4 1.07626E+01-6.44641E+00-9.38977E+00 5.11557E-02 1.37269E-01-7.20845E-02
 -1         5-7.51478E+00-2.76702E+00-4.13037E+00-3.06691E+00 2.93576E-01 4.43306E+00
 -1         6 1.10639E-01-6.16660E+00-1.56136E+01-4.59056E+00 4.84247E-01 2.37843E+00
 -1         7-1.14126E+00-1.50956E+01-5.48035E+00-1.73527E+00-3.04061E-01 5.73823E+00
 -1         8 1.26108E+01-7.20543E+00-1.12916E+01 2.67106E-01 1.16270E-01 4.26358E-01
 -1         9-8.98891E+00 3.04136E+00 1.00906E+01 1.71443E+00-4.53553E-01-4.39466E-01
 -1        10 1.85078E+01 9.45137E+00 1.68376E+01 3.52948E-01-7.18338E-01-7.20920E-01
 -1        11-1.18225E+01 5.76972E+00 7.18075E+00 6.69953E-01-7.72182E-01-9.92871E-01
 -1        12-7.20056E+00 8.13711E+00 2.13319E+00 1.65284E-01 2.15785E-01-9.54577E-01
 -1        13 2.90218E-01-8.46012E+00-1.96673E+01-1.40197E+00 1.59335E+00 1.38932E+00
 -1        14-4.69247E+00-2.09214E-01 7.31428E+00-4.53173E+00-9.63677E-01-1.14889E+00
 -1        15-4.86019E+00-1.83774E+00 1.08630E+00 3.51077E+00-5.79892E-01-5.38797E-01
 -1        16 2.99369E+00-4.51621E+00-1.18534E+01 1.34653E+00 5.25063E-01 5.17911E-01
 -1        17 1.37273E+01 4.52387E+00 6.37976E+00-2.88675E-01-4.20164E-01-2.67875E+00
 -1        18 9.43461E+00 5.07597E-01 3.10581E+00 8.61252E-01-2.60735E-01 9.15188E-01
 -1        19-1.87591E+00-1.06545E+01-5.09663E+00-3.35065E+00-5.66623E-02 5.42031E+00
 -1        20-1.71938E+01 6.03574E+00 8.26304E+00-7.48155E-01-1.02514E-01 5.65298E-01
 -1        21-1.16776E+01 1.41889E+00 3.10263E+00 3.94655E+00-4.09278E-01-4.46011E+00
 -1        22-1.32642E+00-7.44192E+00-2.32626E+00 1.95697E+00 7.67027E-01-1.52385E+00
 -1        23-9.12892E+00 3.61858E+00 3.84345E+00 9.34511E-01-6.13705E-01 2.73444E+00
 -1        24-8.79163E+00-1.89303E-01 1.21070E+00 5.97067E-02-1.00903E-01-2.85242E+00
 -1        25-1.00346E+00-2.08029E+00-1.01775E+01 1.47687E+00 8.06221E-01-2.70489E+00
 -1        26-5.64981E-01-4.01840E+00-1.45299E+01-4.33319E+00-6.32938E-02 5.17831E+00
 -1        27 7.43439E+00-7.63628E+00-5.55785E+00-4.17077E-01 4.99149E-02-2.15720E+00
 -1        28 5.89975E+00-1.30390E+01-8.83593E+00-5.25791E-01-3.30293E-01 4.78002E+00
 -1        29 1.04841E+01 3.96666E+00 8.23350E+00-2.12206E+00-5.48760E-01-1.35573E+00
 -1        30 7.25563E+00 7.17077E+00 1.22410E+01 1.56783E+00-3.34201E-01-4.02327E-01
 -1        31 7.21144E+00 1.48417E+00 2.29010E+00 1.36527E+00-4.72667E-01 8.29903E-02
 -1        32-9.31409E+00 1.53103E-01 6.07421E+00-2.22005E+00-8.79407E-01 2.57059E+00
 -1        33-9.80415E+00-2.16970E+00 1.39138E+00 2.79892E+00-4.69709E-01-3.32742E+00
 -1        34-9.49686E+00 5.37113E+00 2.19094E+00-3.01528E-01-3.20424E-02-7.94762E-01
 -1        35-5.66195E+00 2.51596E+00-8.62591E-02-3.14925E+00-4.55259E-01 3.32731E+00
 -1        36-5.87040E+00-5.95553E-01-3.58963E+00 3.00885E+00-1.72521E-02-3.82207E+00
 -1        37-1.21345E+01 2.13189E+00 3.67127E+00 1.37485E+00-7.11729E-02 7.35548E-01
 -1        38 6.77466E+00 3.66971E+00 3.85655E-01 6.15543E-01-4.71270E-01 1.53355E+00
 -1        39 3.04465E+00 1.34057E-01-3.06191E+00 1.53829E-01 1.51536E-02-2.60053E+00
 -1        40 5.89649E+00 8.45712E+00 8.03355E+00 6.11875E-02 4.50890E-01-2.84329E-01
 -1        41 4.30078E+00-5.75768E+00-8.10535E+00 8.96778E-01 7.59496E-01-1.60662E+00
 -1        42 2.31031E+00-1.37557E+01-1.73827E+01-3.90565E+00 1.66825E-01 5.42688E+00
 -1        43 6.47270E+00 5.78814E+00 9.36796E+00 2.01799E-01-4.69635E-01 1.12959E-01
 -1        44 2.62266E+00 1.39072E+00 4.48953E-01-2.15230E+00-7.74827E-01 2.57204E+00
 -1        45-1.16264E-01-2.02262E+00-2.46982E+00 2.29409E+00-2.03995E-01-3.16644E+00
 -3
    1PSTEP                       115          29           1          
  100CL  129 29.00000000          45                     0   29           1
 -4  TOSTRAIN    6    1
 -5  EXX         1    4    1    1
 -5  EYY         1    4    2    2
 -5  EZZ         1    4    3    3
 -5  EXY         1    4    1    2
 -5  EYZ         1    4    2    3
 -5  EZX         1    4    3    1
 -1         1-9.14381E-03-8.98185E-03-6.84252E-03 1.66808E-03 9.55475E-04-2.14889E-03
 -1         2-8.06426E-03-8.53164E-03-1.04595E-02 1.10664E-03 1.51761E-04-7.12599E-05
 -1         3-7.51597E-03-1.09642E-02-6.02031E-03-3.71806E-04 2.47907E-05-1.04242E-03
 -1         4-2.56184E-03-1.09047E-02-1.04026E-02-3.58531E-04 6.74427E-05 6.66685E-04
 -1         5 4.10641E-03 1.39241E-02 5.27142E-02-9.19603E-03 9.14573E-04 1.36996E-02
 -1         6 7.44335E-03-6.43746E-04 2.21331E-02-1.25086E-02 8.40469E-04 8.05326E-03
 -1         7 1.01540E-02-6.82381E-03 4.42957E-02-5.95966E-03-1.35175E-03 1.69658E-02
 -1         8 1.61488E-02-7.65942E-03 2.09768E-02-4.90319E-04 2.51288E-05 2.79817E-03
 -1         9-3.81219E-02-2.92569E-02-1.88719E-02 3.77297E-03-6.72641E-04-1.00416E-03
 -1        10-2.25939E-02-3.01355E-02-1.91988E-02 9.33526E-04-1.18558E-03-1.47768E-03
 -1        11-4.72136E-02-3.18971E-02-2.81680E-02 1.38655E-03-1.27632E-03-2.02556E-03
 -1        12-3.99557E-02-2.71463E-02-2.85238E-02 4.31946E-04 4.81600E-04-2.41863E-03
 -1        13 1.27795E-02 4.38326E-04 2.26338E-02-4.79791E-03 3.71974E-03 5.32369E-03
 -1        14-2.81847E-02-2.44465E-02 5.88749E-04-9.55944E-03-2.26343E-03-2.45593E-03
 -1        15-2.12472E-02-1.94697E-02-1.42342E-02 4.05621E-03-6.30243E-04-7.03764E-04
 -1        16-5.88263E-03-9.38983E-03-1.06588E-02 7.75086E-04 3.48578E-04 1.16047E-03
 -1        17-1.17365E-02-2.09214E-02-2.94853E-03-6.54630E-04-7.51496E-04-5.44124E-03
 -1        18-1.40403E-02-1.97010E-02-1.41130E-02 9.27045E-04-2.45375E-04 1.06108E-03
 -1        19 1.27022E-02 3.05325E-03 5.18205E-02-1.01215E-02-4.62714E-04 1.65576E-02
 -1        20-4.21137E-02-1.47152E-02 5.14068E-03-8.45658E-04 2.17114E-04 8.37147E-04
 -1        21-2.49002E-02-1.79541E-02-1.34023E-02 4.64256E-03-3.84543E-04-5.60277E-03
 -1        22-7.88954E-03-1.08137E-02-6.13184E-03 1.15466E-03 7.95266E-04-7.32042E-04
 -1        23-3.21663E-02-1.74088E-02 1.01469E-03 2.26622E-03-1.72479E-03 6.51408E-03
 -1        24-2.33682E-02-1.84589E-02-1.41057E-02 1.09103E-04-2.43007E-05-3.61924E-03
 -1        25-7.46720E-03-8.22473E-03-9.81355E-03 6.48869E-04 8.33981E-04-1.83060E-03
 -1        26 1.55034E-02 1.29419E-02 3.77791E-02-1.29125E-02-3.81407E-04 1.59278E-02
 -1        27-3.60329E-03-1.10694E-02-8.39047E-03-8.79841E-04 6.91835E-05-1.23850E-03
 -1        28 1.62029E-02-6.99320E-03 3.50010E-02-2.69985E-03-1.28943E-03 1.42014E-02
 -1        29-1.60764E-02-2.14811E-02 5.51828E-05-5.12592E-03-1.00257E-03-2.43853E-03
 -1        30-2.78508E-02-2.83767E-02-1.94054E-02 3.71707E-03-4.54373E-04-7.83753E-04
 -1        31-1.47074E-02-1.88911E-02-1.47677E-02 1.24240E-03-5.62767E-04 2.59542E-04
 -1        32-3.20280E-02-2.22890E-02 2.75121E-03-4.16270E-03-2.03877E-03 5.74438E-03
 -1        33-2.38306E-02-1.94137E-02-1.38167E-02 3.54199E-03-4.43245E-04-4.20202E-03
 -1        34-4.14876E-02-2.87145E-02-2.78901E-02-8.15113E-04 1.75373E-05-2.04881E-03
 -1        35-2.73928E-02-1.91955E-02-6.00148E-03-6.44772E-03-1.05173E-03 6.62323E-03
 -1        36-2.15175E-02-1.84661E-02-1.70353E-02 3.55694E-03 8.50014E-05-5.05274E-03
 -1        37-3.98717E-02-2.88204E-02-2.29433E-02 3.17833E-03-9.78619E-05 1.46603E-03
 -1        38-1.54623E-02-2.03956E-02-6.60408E-03 1.11647E-03-1.23044E-03 3.00429E-03
 -1        39-1.76744E-02-1.88368E-02-1.72667E-02 2.04835E-04 1.20234E-04-3.46718E-03
 -1        40-2.91086E-02-2.70853E-02-2.20976E-02 1.78398E-04 7.95888E-04-4.15810E-04
 -1        41-5.46061E-03-1.01523E-02-9.03572E-03 1.90254E-04 7.19622E-04-8.81068E-04
 -1        42 2.21722E-02 4.27555E-04 3.50852E-02-1.20523E-02-3.67861E-05 1.69220E-02
 -1        43-2.98791E-02-3.05151E-02-2.29410E-02 6.33675E-04-8.99085E-04 6.52814E-04
 -1        44-1.89748E-02-2.13068E-02-5.67280E-03-3.71796E-03-1.73365E-03 4.72711E-03
 -1        45-1.91401E-02-1.97350E-02-1.64277E-02 2.99563E-03-1.48237E-04-4.34445E-03
 -3
    1PSTEP                       116          29           1          
  100CL  129 29.00000000          45                     0   29           1
 -4  ERROR       1    1
 -5  STR(%)      1    1    0    0
 -1         1 1.26906E+01
 -1         2 2.66854E+01
 -1         3 1.84529E+01
 -1         4 2.66854E+01
 -1         5 1.02119E+01
 -1         6 2.60119E+01
 -1         7 2.43085E+01
 -1         8 2.60119E+01
 -1         9 2.41966E+01
 -1        10 2.66854E+01
 -1        11 2.66854E+01
 -1        12 2.06267E+01
 -1        13 2.60119E+01
 -1        14 2.51042E+01
 -1        15 2.54410E+01
 -1        16 2.66854E+01
 -1        17 2.63487E+01
 -1        18 2.66854E+01
 -1        19 1.72602E+01
 -1        20 1.84487E+01
 -1        21 1.96880E+01
 -1        22 1.55718E+01
 -1        23 2.24676E+01
 -1        24 1.95398E+01
 -1        25 1.96880E+01
 -1        26 1.81119E+01
 -1        27 2.25692E+01
 -1        28 2.51602E+01
 -1        29 2.63487E+01
 -1        30 2.54410E+01
 -1        31 2.66854E+01
 -1        32 2.54970E+01
 -1        33 2.25692E+01
 -1        34 2.36561E+01
 -1        35 2.63487E+01
 -1        36 2.66854E+01
 -1        37 2.54410E+01
 -1        38 2.33193E+01
 -1        39 2.36561E+01
 -1        40 2.36561E+01
 -1        41 1.96880E+01
 -1        42 2.51602E+01
 -1        43 2.66854E+01
 -1        44 2.63487E+01
 -1        45 2.66854E+01
 -3
    1PSTEP                       117          30           1          
  100CL  130 30.00000000          45                     0   30           1
 -4  DISP        4    1
 -5  D1          1    2    1    0
 -5  D2          1    2    2    0
 -5  D3          1    2    3    0
 -5  ALL         1    2    0    0    1ALL
 -1         1-2.57406E+00-5.93615E+00 5.50661E+00
 -1         2-3.65327E+00-5.14089E+00 0.00000E+00
 -1         3-1.39528E+00 0.00000E+00 4.71246E+00
 -1         4 0.00000E+00 0.00000E+00 0.00000E+00
 -1         5 3.18326E+01 4.42053E+00-2.32645E+01
 -1         6 2.10487E+01 3.00853E+00 0.00000E+00
 -1         7 2.66205E+01 0.00000E+00-2.17704E+01
 -1         8 1.15251E+01 0.00000E+00 0.00000E+00
 -1         9 7.50754E+00-1.44066E+01 0.00000E+00
 -1        10 7.11451E+00 0.00000E+00 0.00000E+00
 -1        11 1.05936E+01-1.46028E+01 1.15453E+01
 -1        12 1.09038E+01 0.00000E+00 1.10873E+01
 -1        13 1.39700E+01 1.20526E+00 0.00000E+00
 -1        14 1.64054E+01-1.02325E+01 0.00000E+00
 -1        15 2.82524E-01-1.01435E+01 0.00000E+00
 -1        16-6.79324E-01-2.77011E+00 0.00000E+00
 -1        17 1.17664E+01 0.00000E+00 0.00000E+00
 -1        18 2.57051E+00 0.00000E+00 0.00000E+00
 -1        19 2.48514E+01 7.04717E-01-2.30193E+01
 -1        20 2.77751E+01-8.57024E+00-7.62288E-01
 -1        21 1.95681E+00-9.69234E+00 7.87958E+00
 -1        22-1.49169E+00-3.16004E+00 5.07337E+00
 -1        23 2.21589E+01 0.00000E+00 3.93424E-01
 -1        24 2.83235E+00 0.00000E+00 8.12680E+00
 -1        25-2.91203E+00-5.55232E+00 3.08624E+00
 -1        26 1.91301E+01 4.18528E+00-9.57420E+00
 -1        27 3.07294E-01 0.00000E+00 2.68595E+00
 -1        28 1.40249E+01 0.00000E+00-1.00539E+01
 -1        29 1.28829E+01-4.63543E+00 0.00000E+00
 -1        30 7.46330E+00-7.07999E+00 0.00000E+00
 -1        31 2.49000E+00-5.18897E+00 0.00000E+00
 -1        32 2.31904E+01-4.01963E+00-5.58200E-01
 -1        33 2.69030E+00-5.00080E+00 8.09202E+00
 -1        34 1.09412E+01-7.08200E+00 1.13332E+01
 -1        35 1.82275E+01-9.23573E+00-4.98911E-01
 -1        36 1.15748E+00-1.00214E+01 4.24409E+00
 -1        37 8.54710E+00-1.42691E+01 5.20735E+00
 -1        38 1.44375E+01 0.00000E+00 7.62135E-01
 -1        39 3.02737E+00 0.00000E+00 4.14444E+00
 -1        40 8.49127E+00 0.00000E+00 4.93659E+00
 -1        41-5.61251E-01-3.11388E+00 3.01996E+00
 -1        42 1.37704E+01 7.39654E-01-9.57347E+00
 -1        43 8.39462E+00-7.06095E+00 5.35797E+00
 -1        44 1.48565E+01-4.83909E+00 7.42327E-02
 -1        45 2.93771E+00-5.10745E+00 4.18692E+00
 -3
    1PSTEP                       118          30           1          
  100CL  130 30.00000000          45                     0   30           1
 -4  STRESS      6    1
 -5  SXX         1    4    1    1
 -5  SYY         1    4    2    2
 -5  SZZ         1    4    3    3
 -5  SXY         1    4    1    2
 -5  SYZ         1    4    2    3
 -5  SZX         1    4    3    1
 -1         1-4.12780E+00-3.19194E+00-3.73537E+00 2.63492E+00 9.98519E-01-3.05609E+00
 -1         2-2.09178E+00-3.17942E+00-1.09379E+01 2.20659E+00 2.36452E-01-7.28337E-01
 -1         3-1.46345E+00-8.71446E+00-1.74545E+00 1.42680E-01 8.09269E-04-2.21894E+00
 -1         4 1.15222E+01-6.91548E+00-1.00505E+01 6.18533E-02 1.50940E-01-8.93345E-02
 -1         5-7.87750E+00-2.90704E+00-4.33621E+00-3.21493E+00 3.01289E-01 4.64703E+00
 -1         6 9.37656E-02-6.56015E+00-1.65673E+01-4.83478E+00 5.31057E-01 2.47895E+00
 -1         7-1.17796E+00-1.59547E+01-5.75899E+00-1.79719E+00-3.00457E-01 6.02607E+00
 -1         8 1.32930E+01-7.77392E+00-1.20993E+01 3.02308E-01 1.28973E-01 4.33078E-01
 -1         9-9.64669E+00 3.27832E+00 1.08160E+01 1.77797E+00-4.83968E-01-4.51651E-01
 -1        10 1.97272E+01 1.01378E+01 1.79929E+01 3.61818E-01-7.70816E-01-7.63967E-01
 -1        11-1.25618E+01 6.13645E+00 7.61477E+00 6.69600E-01-8.25521E-01-1.00692E+00
 -1        12-7.65379E+00 8.73345E+00 2.30986E+00 1.69664E-01 2.27607E-01-9.66432E-01
 -1        13 2.69787E-01-8.97552E+00-2.08320E+01-1.45907E+00 1.69336E+00 1.43952E+00
 -1        14-5.05659E+00-2.88369E-01 7.62548E+00-4.84327E+00-1.00335E+00-1.20085E+00
 -1        15-5.23072E+00-1.95171E+00 1.23595E+00 3.76953E+00-6.23917E-01-5.58989E-01
 -1        16 3.17468E+00-4.86108E+00-1.27254E+01 1.45277E+00 5.75199E-01 5.36375E-01
 -1        17 1.45338E+01 4.70905E+00 6.67553E+00-3.09282E-01-4.46059E-01-2.83859E+00
 -1        18 1.00906E+01 6.06219E-01 3.36378E+00 9.19683E-01-2.83004E-01 9.90917E-01
 -1        19-1.91386E+00-1.11933E+01-5.34330E+00-3.50293E+00-5.43776E-02 5.68273E+00
 -1        20-1.82043E+01 6.31268E+00 8.64671E+00-8.38873E-01-1.11118E-01 6.39248E-01
 -1        21-1.24531E+01 1.57962E+00 3.37036E+00 4.20180E+00-4.48816E-01-4.73431E+00
 -1        22-1.44941E+00-8.02778E+00-2.53194E+00 2.11347E+00 8.18231E-01-1.65659E+00
 -1        23-9.67447E+00 3.76526E+00 4.05796E+00 9.79120E-01-6.31718E-01 2.92178E+00
 -1        24-9.39198E+00-1.51924E-01 1.32037E+00 5.71141E-02-1.10241E-01-3.03346E+00
 -1        25-1.11656E+00-2.28720E+00-1.09269E+01 1.61019E+00 8.58108E-01-2.91079E+00
 -1        26-5.43392E-01-4.21566E+00-1.52489E+01-4.54103E+00-6.60694E-02 5.41593E+00
 -1        27 7.92454E+00-8.24104E+00-5.94726E+00-4.32832E-01 5.32206E-02-2.33604E+00
 -1        28 6.23613E+00-1.38359E+01-9.34812E+00-5.27413E-01-3.33847E-01 5.02055E+00
 -1        29 1.11172E+01 4.16144E+00 8.62429E+00-2.25709E+00-5.71065E-01-1.43681E+00
 -1        30 7.71259E+00 7.69573E+00 1.31050E+01 1.62706E+00-3.59088E-01-4.24218E-01
 -1        31 7.72111E+00 1.62040E+00 2.51403E+00 1.46433E+00-5.08379E-01 9.12518E-02
 -1        32-9.85649E+00 1.04335E-01 6.34863E+00-2.38301E+00-9.20119E-01 2.74974E+00
 -1        33-1.04716E+01-2.27967E+00 1.50598E+00 2.97846E+00-5.09067E-01-3.54200E+00
 -1        34-1.00874E+01 5.77327E+00 2.35385E+00-3.34456E-01-3.56135E-02-7.99187E-01
 -1        35-6.01064E+00 2.59717E+00-1.77830E-01-3.36964E+00-4.71880E-01 3.55520E+00
 -1        36-6.27575E+00-6.22285E-01-3.77880E+00 3.21470E+00-2.33084E-02-4.06350E+00
 -1        37-1.29585E+01 2.30215E+00 3.95840E+00 1.41903E+00-7.66391E-02 8.02432E-01
 -1        38 7.13174E+00 3.80047E+00 2.98674E-01 6.52838E-01-4.94459E-01 1.65600E+00
 -1        39 3.29118E+00 2.04269E-01-3.22887E+00 1.57806E-01 1.08717E-02-2.75972E+00
 -1        40 6.28372E+00 9.08434E+00 8.59984E+00 6.32167E-02 4.79935E-01-2.83129E-01
 -1        41 4.59619E+00-6.21322E+00-8.70373E+00 9.80508E-01 8.13733E-01-1.73716E+00
 -1        42 2.47711E+00-1.44392E+01-1.82290E+01-4.07695E+00 1.86420E-01 5.67056E+00
 -1        43 6.91037E+00 6.21033E+00 1.00248E+01 1.90484E-01-5.03671E-01 1.31929E-01
 -1        44 2.75889E+00 1.37351E+00 3.62293E-01-2.31278E+00-8.17792E-01 2.75879E+00
 -1        45-9.58503E-02-2.12081E+00-2.60016E+00 2.43986E+00-2.23118E-01-3.36122E+00
 -3
    1PSTEP                       119          30           1          
  100CL  130 30.00000000          45                     0   30           1
 -4  TOSTRAIN    6    1
 -5  EXX         1    4    1    1
 -5  EYY         1    4    2    2
 -5  EZZ         1    4    3    3
 -5  EXY         1    4    1    2
 -5  EYZ         1    4    2    3
 -5  EZX         1    4    3    1
 -1         1-9.93144E-03-9.78099E-03-7.67589E-03 1.92049E-03 1.06433E-03-2.43313E-03
 -1         2-8.85458E-03-9.39703E-03-1.18001E-02 1.32704E-03 1.83590E-04-1.07559E-04
 -1         3-8.18795E-03-1.21042E-02-6.78700E-03-3.85569E-04 2.61529E-05-1.25750E-03
 -1         4-2.63416E-03-1.20208E-02-1.17313E-02-3.81591E-04 8.65734E-05 7.11110E-04
 -1         5 9.99850E-03 2.08855E-02 6.29932E-02-1.01614E-02 9.84426E-04 1.50628E-02
 -1         6 1.38339E-02 4.89474E-03 2.93188E-02-1.38309E-02 9.69513E-04 8.87653E-03
 -1         7 1.68424E-02-2.08473E-03 5.38065E-02-6.56351E-03-1.43095E-03 1.86697E-02
 -1         8 2.35609E-02-2.94083E-03 2.80887E-02-5.17128E-04 3.66868E-05 3.05984E-03
 -1         9-3.97810E-02-2.97993E-02-1.85680E-02 4.04387E-03-7.45957E-04-1.07225E-03
 -1        10-2.24582E-02-3.07578E-02-1.89546E-02 1.00695E-03-1.32888E-03-1.62054E-03
 -1        11-4.97131E-02-3.27411E-02-2.88760E-02 1.44257E-03-1.42025E-03-2.14115E-03
 -1        12-4.16890E-02-2.74501E-02-2.92716E-02 4.59873E-04 5.25746E-04-2.55439E-03
 -1        13 1.97601E-02 6.01720E-03 2.98789E-02-5.30467E-03 4.10784E-03 5.85377E-03
 -1        14-2.70280E-02-2.28814E-02 4.25702E-03-1.06397E-02-2.46473E-03-2.63729E-03
 -1        15-2.23661E-02-2.03109E-02-1.47149E-02 4.56471E-03-7.15204E-04-7.42993E-04
 -1        16-6.34702E-03-1.02816E-02-1.20223E-02 9.04005E-04 4.25608E-04 1.25449E-03
 -1        17-8.80334E-03-1.90659E-02 3.70850E-04-7.22952E-04-8.31365E-04-5.98433E-03
 -1        18-1.42573E-02-2.05110E-02-1.46190E-02 1.03560E-03-2.86828E-04 1.22010E-03
 -1        19 1.95651E-02 8.84108E-03 6.20154E-02-1.11619E-02-4.82769E-04 1.82236E-02
 -1        20-4.23933E-02-1.21802E-02 9.28544E-03-1.06574E-03 2.06136E-04 1.02397E-03
 -1        21-2.63879E-02-1.85629E-02-1.38095E-02 5.15320E-03-4.56202E-04-6.16830E-03
 -1        22-8.53311E-03-1.18721E-02-6.89461E-03 1.35346E-03 8.86478E-04-8.83233E-04
 -1        23-3.13703E-02-1.52006E-02 4.80003E-03 2.44820E-03-1.86938E-03 7.25362E-03
 -1        24-2.46473E-02-1.91253E-02-1.46104E-02 1.00937E-04-3.57175E-05-3.98766E-03
 -1        25-8.08231E-03-8.95494E-03-1.10131E-02 8.03273E-04 9.27823E-04-2.10413E-03
 -1        26 2.25927E-02 1.98047E-02 4.65288E-02-1.42630E-02-4.09669E-04 1.75046E-02
 -1        27-3.79799E-03-1.22252E-02-9.42477E-03-9.52196E-04 7.65211E-05-1.46206E-03
 -1        28 2.35445E-02-2.23316E-03 4.35406E-02-2.95971E-03-1.38813E-03 1.55961E-02
 -1        29-1.36245E-02-1.96203E-02 3.65450E-03-5.68494E-03-1.09059E-03-2.66227E-03
 -1        30-2.83257E-02-2.88129E-02-1.91705E-02 4.00215E-03-5.09195E-04-8.55759E-04
 -1        31-1.49993E-02-1.96408E-02-1.53174E-02 1.40594E-03-6.36547E-04 3.00874E-04
 -1        32-3.11958E-02-2.06085E-02 6.67241E-03-4.68768E-03-2.22048E-03 6.42470E-03
 -1        33-2.51780E-02-2.02073E-02-1.43014E-02 3.93302E-03-5.13606E-04-4.64276E-03
 -1        34-4.33685E-02-2.92055E-02-2.85798E-02-9.25706E-04 1.60576E-05-2.14790E-03
 -1        35-2.61234E-02-1.71124E-02-3.02940E-03-7.23237E-03-1.13142E-03 7.37791E-03
 -1        36-2.26270E-02-1.91838E-02-1.78391E-02 3.97173E-03 8.03760E-05-5.58680E-03
 -1        37-4.16728E-02-2.93257E-02-2.30905E-02 3.38728E-03-1.04955E-04 1.64367E-03
 -1        38-1.29415E-02-1.84785E-02-3.66350E-03 1.22297E-03-1.34195E-03 3.37444E-03
 -1        39-1.82746E-02-1.95519E-02-1.81270E-02 2.05724E-04 1.18807E-04-3.81238E-03
 -1        40-2.96791E-02-2.73659E-02-2.21744E-02 1.91768E-04 8.76606E-04-4.16912E-04
 -1        41-5.79551E-03-1.11199E-02-1.01402E-02 2.73474E-04 8.12593E-04-1.03411E-03
 -1        42 3.00082E-02 5.95753E-03 4.35849E-02-1.32862E-02 7.58230E-06 1.86066E-02
 -1        43-3.05354E-02-3.11994E-02-2.30961E-02 6.46265E-04-9.99714E-04 7.38305E-04
 -1        44-1.67812E-02-1.95082E-02-2.65359E-03-4.17414E-03-1.89493E-03 5.27819E-03
 -1        45-1.99321E-02-2.05745E-02-1.71937E-02 3.32362E-03-1.80385E-04-4.78287E-03
 -3
    1PSTEP                       120          30           1          
  100CL  130 30.00000000          45                     0   30           1
 -4  ERROR       1    1
 -5  STR(%)      1    1    0    0
 -1         1 1.25535E+01
 -1         2 2.66648E+01
 -1         3 1.84725E+01
 -1         4 2.66648E+01
 -1         5 1.03830E+01
 -1         6 2.61636E+01
 -1         7 2.41903E+01
 -1         8 2.61636E+01
 -1         9 2.41445E+01
 -1        10 2.66648E+01
 -1        11 2.66648E+01
 -1        12 2.03797E+01
 -1        13 2.61636E+01
 -1        14 2.51540E+01
 -1        15 2.54046E+01
 -1        16 2.66648E+01
 -1        17 2.64142E+01
 -1        18 2.66648E+01
 -1        19 1.72866E+01
 -1        20 1.85239E+01
 -1        21 1.96091E+01
 -1        22 1.55130E+01
 -1        23 2.22850E+01
 -1        24 1.94261E+01
 -1        25 1.96091E+01
 -1        26 1.82733E+01
 -1        27 2.25686E+01
 -1        28 2.51769E+01
 -1        29 2.64142E+01
 -1        30 2.54046E+01
 -1        31 2.66648E+01
 -1        32 2.54275E+01
 -1        33 2.25686E+01
 -1        34 2.35222E+01
 -1        35 2.64142E+01
 -1        36 2.66648E+01
 -1        37 2.54046E+01
 -1        38 2.32716E+01
 -1        39 2.35222E+01
 -1        40 2.35222E+01
 -1        41 1.96091E+01
 -1        42 2.51769E+01
 -1        43 2.66648E+01
 -1        44 2.64142E+01
 -1        45 2.66648E+01
 -3
 9999
