    1C
    1UUSER                                                              
    1UDATE              17.july.2018                                    
    1UTIME              15:19:08                                        
    1UHOST                                                              
    1UPGM               CalculiX                                        
    1UVERSION           Version 2.14                             
    1UCOMPILETIME       Tue Jul 17 10:10:03 DST 2018                    
    1UDIR                                                               
    1UDBN                                                               
    1UMAT    1ABAQUSATR2E                                               
    2C                            20                                     1
 -1         1 1.00000E+00 1.00000E+00 0.00000E+00
 -1         2 1.00000E+00 0.00000E+00 0.00000E+00
 -1         3 1.00000E+00 0.00000E+00 1.00000E+00
 -1         4 1.00000E+00 1.00000E+00 1.00000E+00
 -1         5 0.00000E+00 1.00000E+00 0.00000E+00
 -1         6 0.00000E+00 0.00000E+00 0.00000E+00
 -1         7 0.00000E+00 0.00000E+00 1.00000E+00
 -1         8 0.00000E+00 1.00000E+00 1.00000E+00
 -1         9 1.00000E+00 5.00000E-01 0.00000E+00
 -1        10 1.00000E+00 0.00000E+00 5.00000E-01
 -1        11 1.00000E+00 5.00000E-01 1.00000E+00
 -1        12 1.00000E+00 1.00000E+00 5.00000E-01
 -1        13 5.00000E-01 1.00000E+00 0.00000E+00
 -1        14 5.00000E-01 0.00000E+00 0.00000E+00
 -1        15 5.00000E-01 0.00000E+00 1.00000E+00
 -1        16 5.00000E-01 1.00000E+00 1.00000E+00
 -1        17 0.00000E+00 5.00000E-01 0.00000E+00
 -1        18 0.00000E+00 0.00000E+00 5.00000E-01
 -1        19 0.00000E+00 5.00000E-01 1.00000E+00
 -1        20 0.00000E+00 1.00000E+00 5.00000E-01
 -3
    3C                             1                                     1
 -1         1    4    0    1
 -2         1         2         3         4         5         6         7         8         9        10
 -2        11        12        13        14        15        16        17        18        19        20
 -3
    1PSTEP                         1           1           1          
  100CL  101 1.000000000          20                     0    1           1
 -4  STRESS      6    1
 -5  SXX         1    4    1    1
 -5  SYY         1    4    2    2
 -5  SZZ         1    4    3    3
 -5  SXY         1    4    1    2
 -5  SYZ         1    4    2    3
 -5  SZX         1    4    3    1
 -1         1 4.99982E+06 1.53001E+01 5.53737E-10-7.55002E-10 4.66997E-10 3.66848E-10
 -1         2 4.99982E+06 1.53001E+01-9.50537E-10 1.51159E-09-3.46305E-11-7.27888E-10
 -1         3 4.99982E+06 1.53001E+01 1.14228E-09-2.01131E-09-1.71699E-10 8.20395E-10
 -1         4 4.99982E+06 1.53001E+01-7.02755E-10 1.87670E-09 4.76837E-10-5.84649E-11
 -1         5 4.99982E+06 1.52753E+01 1.06866E-09-1.05404E-09-2.29636E-10 5.77990E-10
 -1         6 4.99982E+06 1.52753E+01 6.39806E-11 1.35391E-09-2.76229E-10 8.98738E-11
 -1         7 4.99982E+06 1.52753E+01-2.13754E-10-5.79689E-10 2.35326E-10 5.29921E-10
 -1         8 4.99982E+06 1.52753E+01-8.60768E-10-2.31417E-10-2.66362E-10-1.58617E-09
 -1         9 4.99982E+06 1.53001E+01-1.98400E-10 3.78294E-10 2.16183E-10-1.80520E-10
 -1        10 4.99982E+06 1.53001E+01 9.58697E-11-2.49861E-10-1.03165E-10 4.62537E-11
 -1        11 4.99982E+06 1.53001E+01 2.19761E-10-6.73077E-11 1.52569E-10 3.80965E-10
 -1        12 4.99982E+06 1.53001E+01-7.45087E-11 5.60847E-10 4.71917E-10 1.54192E-10
 -1        13 4.99982E+06 1.52877E+01 8.11201E-10-9.04522E-10 1.18681E-10 4.72419E-10
 -1        14 4.99982E+06 1.52877E+01-4.43278E-10 1.43275E-09-1.55430E-10-3.19007E-10
 -1        15 4.99982E+06 1.52877E+01 4.64261E-10-1.29550E-09 3.18135E-11 6.75158E-10
 -1        16 4.99982E+06 1.52877E+01-7.81761E-10 8.22640E-10 1.05238E-10-8.22318E-10
 -1        17 4.99982E+06 1.52753E+01 5.66322E-10 1.49931E-10-2.52932E-10 3.33932E-10
 -1        18 4.99982E+06 1.52753E+01-7.48869E-11 3.87109E-10-2.04513E-11 3.09897E-10
 -1        19 4.99982E+06 1.52753E+01-5.37261E-10-4.05553E-10-1.55176E-11-5.28125E-10
 -1        20 4.99982E+06 1.52753E+01 1.03948E-10-6.42730E-10-2.47999E-10-5.04090E-10
 -3
    1PSTEP                         2           1           1          
  100CL  101 1.000000000          20                     0    1           1
 -4  TOSTRAIN    6    1
 -5  EXX         1    4    1    1
 -5  EYY         1    4    2    2
 -5  EZZ         1    4    3    3
 -5  EXY         1    4    1    2
 -5  EYZ         1    4    2    3
 -5  EZX         1    4    3    1
 -1         1 4.65051E+02-6.97563E+01-6.97579E+01-1.60425E-13 9.92199E-14 7.79496E-14
 -1         2 4.65051E+02-6.97563E+01-6.97579E+01 3.21179E-13-7.36065E-15-1.54653E-13
 -1         3 4.65051E+02-6.97563E+01-6.97579E+01-4.27347E-13-3.64784E-14 1.74314E-13
 -1         4 4.65051E+02-6.97563E+01-6.97579E+01 3.98737E-13 1.01310E-13-1.24378E-14
 -1         5 4.64924E+02-6.97372E+01-6.97388E+01-2.23901E-13-4.87859E-14 1.22778E-13
 -1         6 4.64924E+02-6.97372E+01-6.97388E+01 2.87593E-13-5.86786E-14 1.90991E-14
 -1         7 4.64924E+02-6.97372E+01-6.97388E+01-1.23122E-13 4.99918E-14 1.12562E-13
 -1         8 4.64924E+02-6.97372E+01-6.97388E+01-4.91783E-14-5.65876E-14-3.36948E-13
 -1         9 4.65051E+02-6.97563E+01-6.97579E+01 8.03771E-14 4.59296E-14-3.83515E-14
 -1        10 4.65051E+02-6.97563E+01-6.97579E+01-5.30838E-14-2.19195E-14 9.83057E-15
 -1        11 4.65051E+02-6.97563E+01-6.97579E+01-1.43048E-14 3.24160E-14 8.09379E-14
 -1        12 4.65051E+02-6.97563E+01-6.97579E+01 1.19156E-13 1.00265E-13 3.27559E-14
 -1        13 4.64988E+02-6.97468E+01-6.97484E+01-1.92163E-13 2.52170E-14 1.00364E-13
 -1        14 4.64988E+02-6.97468E+01-6.97484E+01 3.04386E-13-3.30196E-14-6.77767E-14
 -1        15 4.64988E+02-6.97468E+01-6.97484E+01-2.75235E-13 6.75669E-15 1.43438E-13
 -1        16 4.64988E+02-6.97468E+01-6.97484E+01 1.74779E-13 2.23613E-14-1.74693E-13
 -1        17 4.64924E+02-6.97372E+01-6.97388E+01 3.18460E-14-5.37322E-14 7.09386E-14
 -1        18 4.64924E+02-6.97372E+01-6.97388E+01 8.22355E-14-4.34341E-15 6.58306E-14
 -1        19 4.64924E+02-6.97372E+01-6.97388E+01-8.61504E-14-3.29791E-15-1.12193E-13
 -1        20 4.64924E+02-6.97372E+01-6.97388E+01-1.36540E-13-5.26867E-14-1.07085E-13
 -3
    1PSTEP                         3           1           1          
  100CL  101 1.000000000          20                     0    1           1
 -4  ERROR       1    1
 -5  STR(%)      1    1    0    0
 -1         1 5.81059E-08
 -1         2 5.81059E-08
 -1         3 5.81059E-08
 -1         4 5.81059E-08
 -1         5 5.81059E-08
 -1         6 5.81059E-08
 -1         7 5.81059E-08
 -1         8 5.81059E-08
 -1         9 5.81059E-08
 -1        10 5.81059E-08
 -1        11 5.81059E-08
 -1        12 5.81059E-08
 -1        13 5.81059E-08
 -1        14 5.81059E-08
 -1        15 5.81059E-08
 -1        16 5.81059E-08
 -1        17 5.81059E-08
 -1        18 5.81059E-08
 -1        19 5.81059E-08
 -1        20 5.81059E-08
 -3
