    1C
    1UUSER                                                              
    1UDATE              17.july.2018                                    
    1UTIME              15:19:08                                        
    1UHOST                                                              
    1UPGM               CalculiX                                        
    1UVERSION           Version 2.14                             
    1UCOMPILETIME       Tue Jul 17 10:10:03 DST 2018                    
    1UDIR                                                               
    1UDBN                                                               
    1UMAT    1ABAQUSATR2E                                               
    2C                            20                                     1
 -1         1 1.00000E+00 1.00000E+00 0.00000E+00
 -1         2 1.00000E+00 0.00000E+00 0.00000E+00
 -1         3 1.00000E+00 0.00000E+00 1.00000E+00
 -1         4 1.00000E+00 1.00000E+00 1.00000E+00
 -1         5 0.00000E+00 1.00000E+00 0.00000E+00
 -1         6 0.00000E+00 0.00000E+00 0.00000E+00
 -1         7 0.00000E+00 0.00000E+00 1.00000E+00
 -1         8 0.00000E+00 1.00000E+00 1.00000E+00
 -1         9 1.00000E+00 5.00000E-01 0.00000E+00
 -1        10 1.00000E+00 0.00000E+00 5.00000E-01
 -1        11 1.00000E+00 5.00000E-01 1.00000E+00
 -1        12 1.00000E+00 1.00000E+00 5.00000E-01
 -1        13 5.00000E-01 1.00000E+00 0.00000E+00
 -1        14 5.00000E-01 0.00000E+00 0.00000E+00
 -1        15 5.00000E-01 0.00000E+00 1.00000E+00
 -1        16 5.00000E-01 1.00000E+00 1.00000E+00
 -1        17 0.00000E+00 5.00000E-01 0.00000E+00
 -1        18 0.00000E+00 0.00000E+00 5.00000E-01
 -1        19 0.00000E+00 5.00000E-01 1.00000E+00
 -1        20 0.00000E+00 1.00000E+00 5.00000E-01
 -3
    3C                             1                                     1
 -1         1    4    0    1
 -2         1         2         3         4         5         6         7         8         9        10
 -2        11        12        13        14        15        16        17        18        19        20
 -3
    1PSTEP                         1           1           1          
  100CL  101 1.000000000          20                     0    1           1
 -4  STRESS      6    1
 -5  SXX         1    4    1    1
 -5  SYY         1    4    2    2
 -5  SZZ         1    4    3    3
 -5  SXY         1    4    1    2
 -5  SYZ         1    4    2    3
 -5  SZX         1    4    3    1
 -1         1 4.99982E+06 1.53001E+01 1.45735E-05 4.64249E-10-2.62762E-10 3.17446E-09
 -1         2 4.99982E+06 1.53001E+01 1.45660E-05-6.31064E-10 2.68579E-10-3.60349E-09
 -1         3 4.99982E+06 1.53001E+01 1.45692E-05 1.47024E-11-2.73364E-10 1.86811E-09
 -1         4 4.99982E+06 1.53001E+01 1.45722E-05-1.16375E-10 2.37109E-10-2.26461E-09
 -1         5 4.99982E+06 1.52753E+01 1.45664E-05 7.83309E-10-7.51884E-11 1.95927E-09
 -1         6 4.99982E+06 1.52753E+01 1.45729E-05-8.41552E-10 1.04116E-10-1.83447E-09
 -1         7 4.99982E+06 1.52753E+01 1.45713E-05 1.26186E-09-3.56193E-11 2.86023E-09
 -1         8 4.99982E+06 1.52753E+01 1.45674E-05-1.12637E-09 3.32918E-10-2.89105E-09
 -1         9 4.99982E+06 1.53001E+01 1.45698E-05-8.34077E-11 2.90825E-12-2.14512E-10
 -1        10 4.99982E+06 1.53001E+01 1.45676E-05-3.08181E-10-2.39294E-12-8.67688E-10
 -1        11 4.99982E+06 1.53001E+01 1.45707E-05-5.08365E-11-1.81277E-11-1.98253E-10
 -1        12 4.99982E+06 1.53001E+01 1.45728E-05 1.73937E-10-1.28266E-11 4.54923E-10
 -1        13 4.99982E+06 1.52877E+01 1.45700E-05 6.23779E-10-1.68975E-10 2.56687E-09
 -1        14 4.99982E+06 1.52877E+01 1.45695E-05-7.36308E-10 1.86347E-10-2.71898E-09
 -1        15 4.99982E+06 1.52877E+01 1.45703E-05 6.38283E-10-1.54492E-10 2.36417E-09
 -1        16 4.99982E+06 1.52877E+01 1.45698E-05-6.21374E-10 2.85013E-10-2.57783E-09
 -1        17 4.99982E+06 1.52753E+01 1.45696E-05-2.91215E-11 1.44639E-11 6.24028E-11
 -1        18 4.99982E+06 1.52753E+01 1.45721E-05 2.10156E-10 3.42485E-11 5.12880E-10
 -1        19 4.99982E+06 1.52753E+01 1.45693E-05 6.77448E-11 1.48649E-10-1.54103E-11
 -1        20 4.99982E+06 1.52753E+01 1.45669E-05-1.71532E-10 1.28865E-10-4.65888E-10
 -3
    1PSTEP                         2           1           1          
  100CL  101 1.000000000          20                     0    1           1
 -4  TOSTRAIN    6    1
 -5  EXX         1    4    1    1
 -5  EYY         1    4    2    2
 -5  EZZ         1    4    3    3
 -5  EXY         1    4    1    2
 -5  EYZ         1    4    2    3
 -5  EZX         1    4    3    1
 -1         1 4.65052E+02-6.97562E+01-6.97578E+01 9.86462E-14-5.58295E-14 6.74494E-13
 -1         2 4.65052E+02-6.97562E+01-6.97578E+01-1.34090E-13 5.70656E-14-7.65647E-13
 -1         3 4.65052E+02-6.97562E+01-6.97578E+01 3.13642E-15-5.80818E-14 3.96943E-13
 -1         4 4.65052E+02-6.97562E+01-6.97578E+01-2.47374E-14 5.03816E-14-4.81189E-13
 -1         5 4.64924E+02-6.97371E+01-6.97387E+01 1.66393E-13-1.59695E-14 4.16174E-13
 -1         6 4.64924E+02-6.97371E+01-6.97387E+01-1.78763E-13 2.21146E-14-3.89657E-13
 -1         7 4.64924E+02-6.97371E+01-6.97387E+01 2.68056E-13-7.56383E-15 6.07576E-13
 -1         8 4.64924E+02-6.97371E+01-6.97387E+01-2.39273E-13 7.07190E-14-6.14119E-13
 -1         9 4.65052E+02-6.97562E+01-6.97578E+01-1.77218E-14 6.18057E-16-4.55765E-14
 -1        10 4.65052E+02-6.97562E+01-6.97578E+01-6.54767E-14-5.08082E-16-1.84352E-13
 -1        11 4.65052E+02-6.97562E+01-6.97578E+01-1.08005E-14-3.85009E-15-4.21227E-14
 -1        12 4.65052E+02-6.97562E+01-6.97578E+01 3.69544E-14-2.72395E-15 9.66524E-14
 -1        13 4.64988E+02-6.97466E+01-6.97482E+01 1.32519E-13-3.58995E-14 5.45334E-13
 -1        14 4.64988E+02-6.97466E+01-6.97482E+01-1.56427E-13 3.95901E-14-5.77652E-13
 -1        15 4.64988E+02-6.97466E+01-6.97482E+01 1.35596E-13-3.28228E-14 5.02260E-13
 -1        16 4.64988E+02-6.97466E+01-6.97482E+01-1.32005E-13 6.05503E-14-5.47654E-13
 -1        17 4.64924E+02-6.97371E+01-6.97387E+01-6.18542E-15 3.07253E-15 1.32583E-14
 -1        18 4.64924E+02-6.97371E+01-6.97387E+01 4.46462E-14 7.27539E-15 1.08959E-13
 -1        19 4.64924E+02-6.97371E+01-6.97387E+01 1.43915E-14 3.15776E-14-3.27161E-15
 -1        20 4.64924E+02-6.97371E+01-6.97387E+01-3.64401E-14 2.73747E-14-9.89725E-14
 -3
    1PSTEP                         3           1           1          
  100CL  101 1.000000000          20                     0    1           1
 -4  ERROR       1    1
 -5  STR(%)      1    1    0    0
 -1         1 5.81059E-08
 -1         2 5.81059E-08
 -1         3 5.81059E-08
 -1         4 5.81059E-08
 -1         5 5.81059E-08
 -1         6 5.81059E-08
 -1         7 5.81059E-08
 -1         8 5.81059E-08
 -1         9 5.81059E-08
 -1        10 5.81059E-08
 -1        11 5.81059E-08
 -1        12 5.81059E-08
 -1        13 5.81059E-08
 -1        14 5.81059E-08
 -1        15 5.81059E-08
 -1        16 5.81059E-08
 -1        17 5.81059E-08
 -1        18 5.81059E-08
 -1        19 5.81059E-08
 -1        20 5.81059E-08
 -3
