    1C
    1UUSER                                                              
    1UDATE              17.july.2018                                    
    1UTIME              15:19:08                                        
    1UHOST                                                              
    1UPGM               CalculiX                                        
    1UVERSION           Version 2.14                             
    1UCOMPILETIME       Tue Jul 17 10:10:03 DST 2018                    
    1UDIR                                                               
    1UDBN                                                               
    1UMAT    1ABAQUSATR2E                                               
    2C                            20                                     1
 -1         1 1.00000E+00 1.00000E+00 0.00000E+00
 -1         2 1.00000E+00 0.00000E+00 0.00000E+00
 -1         3 1.00000E+00 0.00000E+00 1.00000E+00
 -1         4 1.00000E+00 1.00000E+00 1.00000E+00
 -1         5 0.00000E+00 1.00000E+00 0.00000E+00
 -1         6 0.00000E+00 0.00000E+00 0.00000E+00
 -1         7 0.00000E+00 0.00000E+00 1.00000E+00
 -1         8 0.00000E+00 1.00000E+00 1.00000E+00
 -1         9 1.00000E+00 5.00000E-01 0.00000E+00
 -1        10 1.00000E+00 0.00000E+00 5.00000E-01
 -1        11 1.00000E+00 5.00000E-01 1.00000E+00
 -1        12 1.00000E+00 1.00000E+00 5.00000E-01
 -1        13 5.00000E-01 1.00000E+00 0.00000E+00
 -1        14 5.00000E-01 0.00000E+00 0.00000E+00
 -1        15 5.00000E-01 0.00000E+00 1.00000E+00
 -1        16 5.00000E-01 1.00000E+00 1.00000E+00
 -1        17 0.00000E+00 5.00000E-01 0.00000E+00
 -1        18 0.00000E+00 0.00000E+00 5.00000E-01
 -1        19 0.00000E+00 5.00000E-01 1.00000E+00
 -1        20 0.00000E+00 1.00000E+00 5.00000E-01
 -3
    3C                             1                                     1
 -1         1    4    0    1
 -2         1         2         3         4         5         6         7         8         9        10
 -2        11        12        13        14        15        16        17        18        19        20
 -3
    1PSTEP                         1           1           1          
  100CL  101 1.000000000          20                     0    1           1
 -4  STRESS      6    1
 -5  SXX         1    4    1    1
 -5  SYY         1    4    2    2
 -5  SZZ         1    4    3    3
 -5  SXY         1    4    1    2
 -5  SYZ         1    4    2    3
 -5  SZX         1    4    3    1
 -1         1 4.99982E+06 1.53013E+01 1.42363E-03-1.76675E-09 3.38523E-10 1.92308E-09
 -1         2 4.99982E+06 1.53013E+01 1.42363E-03 1.14588E-09 3.47335E-10 6.00542E-11
 -1         3 4.99982E+06 1.53013E+01 1.42363E-03-9.66811E-10-9.78556E-12-5.84583E-10
 -1         4 4.99982E+06 1.53013E+01 1.42363E-03 6.59299E-10 1.46675E-10-2.12799E-09
 -1         5 4.99982E+06 1.52765E+01 1.42098E-03-5.10776E-11-8.21865E-11 1.55896E-09
 -1         6 4.99982E+06 1.52765E+01 1.42098E-03 7.93496E-10-3.89178E-10 7.32023E-10
 -1         7 4.99982E+06 1.52765E+01 1.42098E-03-1.73455E-09 1.21326E-10-4.62694E-11
 -1         8 4.99982E+06 1.52765E+01 1.42098E-03 8.96327E-10-1.88499E-10-1.75769E-09
 -1         9 4.99982E+06 1.53013E+01 1.42363E-03-3.10435E-10 3.42929E-10 9.91568E-10
 -1        10 4.99982E+06 1.53013E+01 1.42363E-03 8.95348E-11 1.68775E-10-2.62265E-10
 -1        11 4.99982E+06 1.53013E+01 1.42363E-03-1.53756E-10 6.84448E-11-1.35629E-09
 -1        12 4.99982E+06 1.53013E+01 1.42363E-03-5.53726E-10 2.42599E-10-1.02456E-10
 -1        13 4.99982E+06 1.52889E+01 1.42231E-03-9.08914E-10 1.28168E-10 1.74102E-09
 -1        14 4.99982E+06 1.52889E+01 1.42231E-03 9.69688E-10-2.09214E-11 3.96039E-10
 -1        15 4.99982E+06 1.52889E+01 1.42231E-03-1.35068E-09 5.57702E-11-3.15426E-10
 -1        16 4.99982E+06 1.52889E+01 1.42231E-03 7.77813E-10-2.09119E-11-1.94284E-09
 -1        17 4.99982E+06 1.52765E+01 1.42098E-03 3.71209E-10-2.35682E-10 1.14549E-09
 -1        18 4.99982E+06 1.52765E+01 1.42098E-03-4.70526E-10-1.33926E-10 3.42877E-10
 -1        19 4.99982E+06 1.52765E+01 1.42098E-03-4.19110E-10-3.35864E-11-9.01979E-10
 -1        20 4.99982E+06 1.52765E+01 1.42098E-03 4.22625E-10-1.35343E-10-9.93627E-11
 -3
    1PSTEP                         2           1           1          
  100CL  101 1.000000000          20                     0    1           1
 -4  TOSTRAIN    6    1
 -5  EXX         1    4    1    1
 -5  EYY         1    4    2    2
 -5  EZZ         1    4    3    3
 -5  EXY         1    4    1    2
 -5  EYZ         1    4    2    3
 -5  EZX         1    4    3    1
 -1         1 4.65063E+02-6.97447E+01-6.97411E+01-3.75380E-13 7.19247E-14 4.08610E-13
 -1         2 4.65063E+02-6.97447E+01-6.97411E+01 2.43472E-13 7.37940E-14 1.27670E-14
 -1         3 4.65063E+02-6.97447E+01-6.97411E+01-2.05434E-13-2.07791E-15-1.24206E-13
 -1         4 4.65063E+02-6.97447E+01-6.97411E+01 1.40089E-13 3.11620E-14-4.52149E-13
 -1         5 4.64936E+02-6.97256E+01-6.97220E+01-1.08327E-14-1.74622E-14 3.31149E-13
 -1         6 4.64936E+02-6.97256E+01-6.97220E+01 1.68550E-13-8.26761E-14 1.55502E-13
 -1         7 4.64936E+02-6.97256E+01-6.97220E+01-3.68458E-13 2.57732E-14-9.82311E-15
 -1         8 4.64936E+02-6.97256E+01-6.97220E+01 1.90399E-13-4.00441E-14-3.73362E-13
 -1         9 4.65063E+02-6.97447E+01-6.97411E+01-6.59541E-14 7.28593E-14 2.10689E-13
 -1        10 4.65063E+02-6.97447E+01-6.97411E+01 1.90186E-14 3.58580E-14-5.57196E-14
 -1        11 4.65063E+02-6.97447E+01-6.97411E+01-3.26725E-14 1.45420E-14-2.88178E-13
 -1        12 4.65063E+02-6.97447E+01-6.97411E+01-1.17645E-13 5.15433E-14-2.17696E-14
 -1        13 4.64999E+02-6.97351E+01-6.97316E+01-1.93106E-13 2.72313E-14 3.69880E-13
 -1        14 4.64999E+02-6.97351E+01-6.97316E+01 2.06011E-13-4.44103E-15 8.41346E-14
 -1        15 4.64999E+02-6.97351E+01-6.97316E+01-2.86946E-13 1.18477E-14-6.70146E-14
 -1        16 4.64999E+02-6.97351E+01-6.97316E+01 1.65244E-13-4.44103E-15-4.12756E-13
 -1        17 4.64936E+02-6.97256E+01-6.97220E+01 7.88586E-14-5.00691E-14 2.43326E-13
 -1        18 4.64936E+02-6.97256E+01-6.97220E+01-9.99541E-14-2.84514E-14 7.28395E-14
 -1        19 4.64936E+02-6.97256E+01-6.97220E+01-8.90295E-14-7.13541E-15-1.91593E-13
 -1        20 4.64936E+02-6.97256E+01-6.97220E+01 8.97832E-14-2.87531E-14-2.11065E-14
 -3
    1PSTEP                         3           1           1          
  100CL  101 1.000000000          20                     0    1           1
 -4  ERROR       1    1
 -5  STR(%)      1    1    0    0
 -1         1 5.81115E-08
 -1         2 5.81115E-08
 -1         3 5.81115E-08
 -1         4 5.81115E-08
 -1         5 5.81115E-08
 -1         6 5.81115E-08
 -1         7 5.81115E-08
 -1         8 5.81115E-08
 -1         9 5.81115E-08
 -1        10 5.81115E-08
 -1        11 5.81115E-08
 -1        12 5.81115E-08
 -1        13 5.81115E-08
 -1        14 5.81115E-08
 -1        15 5.81115E-08
 -1        16 5.81115E-08
 -1        17 5.81115E-08
 -1        18 5.81115E-08
 -1        19 5.81115E-08
 -1        20 5.81115E-08
 -3
