    1C
    1UUSER                                                              
    1UDATE              17.july.2018                                    
    1UTIME              15:19:08                                        
    1UHOST                                                              
    1UPGM               CalculiX                                        
    1UVERSION           Version 2.14                             
    1UCOMPILETIME       Tue Jul 17 10:10:03 DST 2018                    
    1UDIR                                                               
    1UDBN                                                               
    1UMAT    1ABAQUSATR2E                                               
    2C                            20                                     1
 -1         1 1.00000E+00 1.00000E+00 0.00000E+00
 -1         2 1.00000E+00 0.00000E+00 0.00000E+00
 -1         3 1.00000E+00 0.00000E+00 1.00000E+00
 -1         4 1.00000E+00 1.00000E+00 1.00000E+00
 -1         5 0.00000E+00 1.00000E+00 0.00000E+00
 -1         6 0.00000E+00 0.00000E+00 0.00000E+00
 -1         7 0.00000E+00 0.00000E+00 1.00000E+00
 -1         8 0.00000E+00 1.00000E+00 1.00000E+00
 -1         9 1.00000E+00 5.00000E-01 0.00000E+00
 -1        10 1.00000E+00 0.00000E+00 5.00000E-01
 -1        11 1.00000E+00 5.00000E-01 1.00000E+00
 -1        12 1.00000E+00 1.00000E+00 5.00000E-01
 -1        13 5.00000E-01 1.00000E+00 0.00000E+00
 -1        14 5.00000E-01 0.00000E+00 0.00000E+00
 -1        15 5.00000E-01 0.00000E+00 1.00000E+00
 -1        16 5.00000E-01 1.00000E+00 1.00000E+00
 -1        17 0.00000E+00 5.00000E-01 0.00000E+00
 -1        18 0.00000E+00 0.00000E+00 5.00000E-01
 -1        19 0.00000E+00 5.00000E-01 1.00000E+00
 -1        20 0.00000E+00 1.00000E+00 5.00000E-01
 -3
    3C                             1                                     1
 -1         1    4    0    1
 -2         1         2         3         4         5         6         7         8         9        10
 -2        11        12        13        14        15        16        17        18        19        20
 -3
    1PSTEP                         1           1           1          
  100CL  101 1.000000000          20                     0    1           1
 -4  STRESS      6    1
 -5  SXX         1    4    1    1
 -5  SYY         1    4    2    2
 -5  SZZ         1    4    3    3
 -5  SXY         1    4    1    2
 -5  SYZ         1    4    2    3
 -5  SZX         1    4    3    1
 -1         1 4.99983E+06 2.64395E+01 1.95466E-10-2.06152E-09 8.84615E-10 2.81455E-09
 -1         2 4.99983E+06 2.64395E+01 3.93412E-09 1.88624E-09-2.51691E-10-1.77762E-10
 -1         3 4.99983E+06 2.64395E+01-1.96346E-09-2.47503E-09 1.69447E-09 6.18593E-10
 -1         4 4.99983E+06 2.64395E+01 3.05356E-09 2.17776E-09 9.50194E-10-2.36272E-09
 -1         5 4.99983E+06 2.64395E+01-2.08812E-09 6.43562E-10-3.95789E-10 1.58329E-09
 -1         6 4.99983E+06 2.64395E+01-1.59126E-09 1.24537E-09-2.93036E-10 9.64070E-10
 -1         7 4.99983E+06 2.64395E+01-3.32498E-11-1.56980E-09-7.46873E-10 7.10703E-10
 -1         8 4.99983E+06 2.64395E+01-3.21924E-09-2.18305E-10-7.71510E-10-2.84530E-09
 -1         9 4.99983E+06 2.64395E+01 2.06479E-09-8.76421E-11 3.16462E-10 1.31839E-09
 -1        10 4.99983E+06 2.64395E+01 9.85329E-10-2.94399E-10 7.21391E-10 2.20416E-10
 -1        11 4.99983E+06 2.64395E+01 5.45050E-10-1.48635E-10 1.32233E-09-8.72063E-10
 -1        12 4.99983E+06 2.64395E+01 1.62451E-09 5.81216E-11 9.17405E-10 2.25914E-10
 -1        13 4.99983E+06 2.64395E+01-9.46328E-10-7.08979E-10 2.44413E-10 2.19892E-09
 -1        14 4.99983E+06 2.64395E+01 1.17143E-09 1.56580E-09-2.72364E-10 3.93154E-10
 -1        15 4.99983E+06 2.64395E+01-9.98354E-10-2.02242E-09 4.73800E-10 6.64648E-10
 -1        16 4.99983E+06 2.64395E+01-8.28403E-11 9.79729E-10 8.93420E-11-2.60401E-09
 -1        17 4.99983E+06 2.64395E+01-1.83969E-09 9.44465E-10-3.44412E-10 1.27368E-09
 -1        18 4.99983E+06 2.64395E+01-8.12253E-10-1.62217E-10-5.19955E-10 8.37387E-10
 -1        19 4.99983E+06 2.64395E+01-1.62624E-09-8.94053E-10-7.59192E-10-1.06730E-09
 -1        20 4.99983E+06 2.64395E+01-2.65368E-09 2.12629E-10-5.83650E-10-6.31005E-10
 -3
    1PSTEP                         2           1           1          
  100CL  101 1.000000000          20                     0    1           1
 -4  TOSTRAIN    6    1
 -5  EXX         1    4    1    1
 -5  EYY         1    4    2    2
 -5  EZZ         1    4    3    3
 -5  EXY         1    4    1    2
 -5  EYZ         1    4    2    3
 -5  EZX         1    4    3    1
 -1         1 7.60664E+02-1.14096E+02-1.14100E+02-7.19081E-13 3.08575E-13 9.81517E-13
 -1         2 7.60664E+02-1.14096E+02-1.14100E+02 6.57770E-13-8.77581E-14-6.20898E-14
 -1         3 7.60664E+02-1.14096E+02-1.14100E+02-8.63101E-13 5.91071E-13 2.15688E-13
 -1         4 7.60664E+02-1.14096E+02-1.14100E+02 7.59585E-13 3.31482E-13-8.23810E-13
 -1         5 7.61880E+02-1.14278E+02-1.14283E+02 2.24511E-13-1.38109E-13 5.53072E-13
 -1         6 7.61880E+02-1.14278E+02-1.14283E+02 4.35000E-13-1.02338E-13 3.36592E-13
 -1         7 7.61880E+02-1.14278E+02-1.14283E+02-5.48332E-13-2.60616E-13 2.48202E-13
 -1         8 7.61880E+02-1.14278E+02-1.14283E+02-7.60195E-14-2.69287E-13-9.93666E-13
 -1         9 7.60664E+02-1.14096E+02-1.14100E+02-3.06557E-14 1.10408E-13 4.59714E-13
 -1        10 7.60664E+02-1.14096E+02-1.14100E+02-1.02666E-13 2.51657E-13 7.67992E-14
 -1        11 7.60664E+02-1.14096E+02-1.14100E+02-5.17582E-14 4.61277E-13-3.04061E-13
 -1        12 7.60664E+02-1.14096E+02-1.14100E+02 2.02520E-14 3.20029E-13 7.88535E-14
 -1        13 7.61272E+02-1.14187E+02-1.14192E+02-2.47285E-13 8.52329E-14 7.67295E-13
 -1        14 7.61272E+02-1.14187E+02-1.14192E+02 5.46385E-13-9.50480E-14 1.37251E-13
 -1        15 7.61272E+02-1.14187E+02-1.14192E+02-7.05717E-13 1.65228E-13 2.31945E-13
 -1        16 7.61272E+02-1.14187E+02-1.14192E+02 3.41783E-13 3.10975E-14-9.08738E-13
 -1        17 7.61880E+02-1.14278E+02-1.14283E+02 3.29755E-13-1.20223E-13 4.44832E-13
 -1        18 7.61880E+02-1.14278E+02-1.14283E+02-5.66660E-14-1.81477E-13 2.92397E-13
 -1        19 7.61880E+02-1.14278E+02-1.14283E+02-3.12176E-13-2.64952E-13-3.72732E-13
 -1        20 7.61880E+02-1.14278E+02-1.14283E+02 7.42455E-14-2.03698E-13-2.20297E-13
 -3
    1PSTEP                         3           1           1          
  100CL  101 1.000000000          20                     0    1           1
 -4  ERROR       1    1
 -5  STR(%)      1    1    0    0
 -1         1 2.26623E-14
 -1         2 2.26623E-14
 -1         3 2.26623E-14
 -1         4 2.26623E-14
 -1         5 2.26623E-14
 -1         6 2.26623E-14
 -1         7 2.26623E-14
 -1         8 2.26623E-14
 -1         9 2.26623E-14
 -1        10 2.26623E-14
 -1        11 2.26623E-14
 -1        12 2.26623E-14
 -1        13 2.26623E-14
 -1        14 2.26623E-14
 -1        15 2.26623E-14
 -1        16 2.26623E-14
 -1        17 2.26623E-14
 -1        18 2.26623E-14
 -1        19 2.26623E-14
 -1        20 2.26623E-14
 -3
